Cu-Zr-N2                                
   1.00000000000000     
     7.6967864037000000    0.0000000000000000    0.0000000000000000
     3.8483927580000001    6.6656128092999998    0.0000000000000000
     0.0000000000000000    0.0000000000000000   21.2843990325999997
   Cu   Zr   N 
    35     1     2
Selective dynamics
Direct
  0.0000000000000000  0.0000000000000000  0.2523707450000003   F   F   F
  0.3333333429999996  0.0000000000000000  0.2523707450000003   F   F   F
  0.6666666870000029  0.0000000000000000  0.2523707450000003   F   F   F
  0.0000000000000000  0.3333333429999996  0.2523707450000003   F   F   F
  0.3333333129999971  0.3333333429999996  0.2523707450000003   F   F   F
  0.6666666870000029  0.3333333429999996  0.2523707450000003   F   F   F
  0.0000000000000000  0.6666666870000029  0.2523707450000003   F   F   F
  0.3333333730000021  0.6666666870000029  0.2523707450000003   F   F   F
  0.6666666269999979  0.6666666870000029  0.2523707450000003   F   F   F
  0.1111111190000003  0.1111111120000032  0.3507902619999967   F   F   F
  0.4444444180000033  0.1111111120000032  0.3507902619999967   F   F   F
  0.7777777909999983  0.1111111120000032  0.3507902619999967   F   F   F
  0.1111111190000003  0.4444444479999987  0.3507902619999967   F   F   F
  0.4444444780000012  0.4444444479999987  0.3507902619999967   F   F   F
  0.7777777310000005  0.4444444479999987  0.3507902619999967   F   F   F
  0.1111111120000032  0.7777777310000005  0.3507902619999967   F   F   F
  0.4444444780000012  0.7777777310000005  0.3507902619999967   F   F   F
  0.7777778510000033  0.7777777310000005  0.3507902619999967   F   F   F
  0.8894062030487646  0.2211876099024508  0.4477091544094165   F   F   F
  0.2230973492669150  0.2230973342669174  0.4501412833626688   F   F   F
  0.5538053614661607  0.2230973342669174  0.4501412833626688   F   F   F
  0.8888583504486718  0.5555707947756616  0.4487724673373563   F   F   F
  0.2230973192669197  0.5538053014661628  0.4501412833626688   F   F   F
  0.5555708547756595  0.5555707947756616  0.4487724673373563   F   F   F
  0.8894062030487646  0.8894062030487646  0.4477091544094165   F   F   F
  0.2211876249024485  0.8894062030487646  0.4477091544094165   F   F   F
  0.5555707947756616  0.8888583504486718  0.4487724673373563   F   F   F
  0.0000000000000000  0.0000000000000000  0.5467692103495878   F   F   F
  0.3341594688826603  0.9936678558709673  0.5469208870725950   F   F   F
  0.6721727052463891  0.9936678558709673  0.5469208870725950   F   F   F
  0.9936678558709673  0.3341594688826603  0.5469208870725950   F   F   F
  0.6721727052463891  0.3341594688826603  0.5469208870725950   F   F   F
  0.9936678558709673  0.6721727052463891  0.5469208870725950   F   F   F
  0.3341594988826628  0.6721727052463891  0.5469208870725950   F   F   F
  0.6666666269999979  0.6666666870000029  0.5481380776531495   F   F   F
  0.3333333129999971  0.3333333429999996  0.5653388847003527   F   F   F
  0.9056227159180738  0.3334280320973589  0.7362711356489899   T   T   T
  0.7609492209845541  0.3334280320973589  0.7362711356489899   T   T   T
 
  0.00000000E+00  0.00000000E+00  0.00000000E+00
  0.00000000E+00  0.00000000E+00  0.00000000E+00
  0.00000000E+00  0.00000000E+00  0.00000000E+00
  0.00000000E+00  0.00000000E+00  0.00000000E+00
  0.00000000E+00  0.00000000E+00  0.00000000E+00
  0.00000000E+00  0.00000000E+00  0.00000000E+00
  0.00000000E+00  0.00000000E+00  0.00000000E+00
  0.00000000E+00  0.00000000E+00  0.00000000E+00
  0.00000000E+00  0.00000000E+00  0.00000000E+00
  0.00000000E+00  0.00000000E+00  0.00000000E+00
  0.00000000E+00  0.00000000E+00  0.00000000E+00
  0.00000000E+00  0.00000000E+00  0.00000000E+00
  0.00000000E+00  0.00000000E+00  0.00000000E+00
  0.00000000E+00  0.00000000E+00  0.00000000E+00
  0.00000000E+00  0.00000000E+00  0.00000000E+00
  0.00000000E+00  0.00000000E+00  0.00000000E+00
  0.00000000E+00  0.00000000E+00  0.00000000E+00
  0.00000000E+00  0.00000000E+00  0.00000000E+00
  0.00000000E+00  0.00000000E+00  0.00000000E+00
  0.00000000E+00  0.00000000E+00  0.00000000E+00
  0.00000000E+00  0.00000000E+00  0.00000000E+00
  0.00000000E+00  0.00000000E+00  0.00000000E+00
  0.00000000E+00  0.00000000E+00  0.00000000E+00
  0.00000000E+00  0.00000000E+00  0.00000000E+00
  0.00000000E+00  0.00000000E+00  0.00000000E+00
  0.00000000E+00  0.00000000E+00  0.00000000E+00
  0.00000000E+00  0.00000000E+00  0.00000000E+00
  0.00000000E+00  0.00000000E+00  0.00000000E+00
  0.00000000E+00  0.00000000E+00  0.00000000E+00
  0.00000000E+00  0.00000000E+00  0.00000000E+00
  0.00000000E+00  0.00000000E+00  0.00000000E+00
  0.00000000E+00  0.00000000E+00  0.00000000E+00
  0.00000000E+00  0.00000000E+00  0.00000000E+00
  0.00000000E+00  0.00000000E+00  0.00000000E+00
  0.00000000E+00  0.00000000E+00  0.00000000E+00
  0.00000000E+00  0.00000000E+00  0.00000000E+00
  0.00000000E+00  0.00000000E+00  0.00000000E+00
  0.00000000E+00  0.00000000E+00  0.00000000E+00
