Ag-Os-H2O                               
   1.00000000000000     
     8.7913665770999998    0.0000000000000000    0.0000000000000000
     4.3956832885999999    7.6135467898000000    0.0000000000000000
     0.0000000000000000    0.0000000000000000   24.9519635624615859
   Ag   Os   H    O 
    35     1     2     1
Selective dynamics
Direct
  0.0000000000000000  0.0000000000000000  0.2116942872471981   F   F   F
  0.3333333129999971  0.0000000000000000  0.2116942872471981   F   F   F
  0.6666666269999979  0.0000000000000000  0.2116942872471981   F   F   F
  0.0000000000000000  0.3333333429999996  0.2116942872471981   F   F   F
  0.3333333129999971  0.3333333429999996  0.2116942872471981   F   F   F
  0.6666666870000029  0.3333333429999996  0.2116942872471981   F   F   F
  0.0000000000000000  0.6666666870000029  0.2116942872471981   F   F   F
  0.3333333129999971  0.6666666870000029  0.2116942872471981   F   F   F
  0.6666666269999979  0.6666666870000029  0.2116942872471981   F   F   F
  0.1111111040000026  0.1111111120000032  0.3075868288647499   F   F   F
  0.4444444479999987  0.1111111120000032  0.3075868288647499   F   F   F
  0.7777777909999983  0.1111111120000032  0.3075868288647499   F   F   F
  0.1111110969999984  0.4444444479999987  0.3075868288647499   F   F   F
  0.4444444180000033  0.4444444479999987  0.3075868288647499   F   F   F
  0.7777777909999983  0.4444444479999987  0.3075868288647499   F   F   F
  0.1111111040000026  0.7777777909999983  0.3075868288647499   F   F   F
  0.4444444479999987  0.7777777909999983  0.3075868288647499   F   F   F
  0.7777777909999983  0.7777777909999983  0.3075868288647499   F   F   F
  0.8884725832112110  0.2230548495775793  0.4035931581415184   F   F   F
  0.2222448940414310  0.2222449090414287  0.4016522065783192   F   F   F
  0.5555101519171401  0.2222449090414287  0.4016522065783192   F   F   F
  0.8879547361050228  0.5560226619474804  0.4029655221680031   F   F   F
  0.2222449090414287  0.5555102119171309  0.4016522065783192   F   F   F
  0.5560226619474804  0.5560226619474804  0.4029655221680031   F   F   F
  0.8884725832112110  0.8884725832112110  0.4035931581415184   F   F   F
  0.2230548195775697  0.8884725832112110  0.4035931581415184   F   F   F
  0.5560226019474825  0.8879547361050228  0.4029655221680031   F   F   F
  0.0000000000000000  0.0000000000000000  0.4980480836337620   F   F   F
  0.3330236509919331  0.0075497303458789  0.4988956978267893   F   F   F
  0.6594265586621901  0.0075497303458789  0.4988956978267893   F   F   F
  0.0075497303458789  0.3330236809919427  0.4988956978267893   F   F   F
  0.6594266186622022  0.3330236809919427  0.4988956978267893   F   F   F
  0.0075497303458789  0.6594266186622022  0.4988956978267893   F   F   F
  0.3330236509919331  0.6594266186622022  0.4988956978267893   F   F   F
  0.6666666269999979  0.6666666870000029  0.4978051195546271   F   F   F
  0.3333333129999971  0.3333333429999996  0.4890643310760012   F   F   F
  0.2784519920936362  0.2667330989873481  0.5883331310094467   T   T   T
  0.4578992082218602  0.2627680964833911  0.5878634180586053   T   T   T
  0.3320673483639836  0.3391354380566303  0.5812709034494666   T   T   T
 
  0.00000000E+00  0.00000000E+00  0.00000000E+00
  0.00000000E+00  0.00000000E+00  0.00000000E+00
  0.00000000E+00  0.00000000E+00  0.00000000E+00
  0.00000000E+00  0.00000000E+00  0.00000000E+00
  0.00000000E+00  0.00000000E+00  0.00000000E+00
  0.00000000E+00  0.00000000E+00  0.00000000E+00
  0.00000000E+00  0.00000000E+00  0.00000000E+00
  0.00000000E+00  0.00000000E+00  0.00000000E+00
  0.00000000E+00  0.00000000E+00  0.00000000E+00
  0.00000000E+00  0.00000000E+00  0.00000000E+00
  0.00000000E+00  0.00000000E+00  0.00000000E+00
  0.00000000E+00  0.00000000E+00  0.00000000E+00
  0.00000000E+00  0.00000000E+00  0.00000000E+00
  0.00000000E+00  0.00000000E+00  0.00000000E+00
  0.00000000E+00  0.00000000E+00  0.00000000E+00
  0.00000000E+00  0.00000000E+00  0.00000000E+00
  0.00000000E+00  0.00000000E+00  0.00000000E+00
  0.00000000E+00  0.00000000E+00  0.00000000E+00
  0.00000000E+00  0.00000000E+00  0.00000000E+00
  0.00000000E+00  0.00000000E+00  0.00000000E+00
  0.00000000E+00  0.00000000E+00  0.00000000E+00
  0.00000000E+00  0.00000000E+00  0.00000000E+00
  0.00000000E+00  0.00000000E+00  0.00000000E+00
  0.00000000E+00  0.00000000E+00  0.00000000E+00
  0.00000000E+00  0.00000000E+00  0.00000000E+00
  0.00000000E+00  0.00000000E+00  0.00000000E+00
  0.00000000E+00  0.00000000E+00  0.00000000E+00
  0.00000000E+00  0.00000000E+00  0.00000000E+00
  0.00000000E+00  0.00000000E+00  0.00000000E+00
  0.00000000E+00  0.00000000E+00  0.00000000E+00
  0.00000000E+00  0.00000000E+00  0.00000000E+00
  0.00000000E+00  0.00000000E+00  0.00000000E+00
  0.00000000E+00  0.00000000E+00  0.00000000E+00
  0.00000000E+00  0.00000000E+00  0.00000000E+00
  0.00000000E+00  0.00000000E+00  0.00000000E+00
  0.00000000E+00  0.00000000E+00  0.00000000E+00
  0.00000000E+00  0.00000000E+00  0.00000000E+00
  0.00000000E+00  0.00000000E+00  0.00000000E+00
  0.00000000E+00  0.00000000E+00  0.00000000E+00
