Au-Pd-N2                                
   1.00000000000000     
     8.8135128021000000    0.0000000000000000    0.0000000000000000
     4.4067569092000003    7.6327256898000000    0.0000000000000000
     0.0000000000000000    0.0000000000000000   25.5676529648256299
   Au   Pd   N 
    35     1     2
Selective dynamics
Direct
  0.0000000000000000  0.0000000000000000  0.2065257979006176   F   F   F
  0.3333333429999996  0.0000000000000000  0.2065257979006176   F   F   F
  0.6666666870000029  0.0000000000000000  0.2065257979006176   F   F   F
  0.0000000000000000  0.3333333429999996  0.2065257979006176   F   F   F
  0.3333333129999971  0.3333333429999996  0.2065257979006176   F   F   F
  0.6666666870000029  0.3333333429999996  0.2065257979006176   F   F   F
  0.0000000000000000  0.6666666870000029  0.2065257979006176   F   F   F
  0.3333333429999996  0.6666666870000029  0.2065257979006176   F   F   F
  0.6666666269999979  0.6666666870000029  0.2065257979006176   F   F   F
  0.1111111190000003  0.1111111120000032  0.3003448950229526   F   F   F
  0.4444444180000033  0.1111111120000032  0.3003448950229526   F   F   F
  0.7777777909999983  0.1111111120000032  0.3003448950229526   F   F   F
  0.1111111270000009  0.4444444479999987  0.3003448950229526   F   F   F
  0.4444444780000012  0.4444444479999987  0.3003448950229526   F   F   F
  0.7777777310000005  0.4444444479999987  0.3003448950229526   F   F   F
  0.1111110900000014  0.7777777909999983  0.3003448950229526   F   F   F
  0.4444444479999987  0.7777777909999983  0.3003448950229526   F   F   F
  0.7777778510000033  0.7777777909999983  0.3003448950229526   F   F   F
  0.8890967813989832  0.2218064532020279  0.3935757595824398   F   F   F
  0.2221387676135578  0.2221387526135601  0.3938859841138225   F   F   F
  0.5557225247728823  0.2221387526135601  0.3938859841138225   F   F   F
  0.8888231310370074  0.5555884644815023  0.3938819729887584   F   F   F
  0.2221387226135576  0.5557225247728823  0.3938859841138225   F   F   F
  0.5555884644815023  0.5555884644815023  0.3938819729887584   F   F   F
  0.8890967813989832  0.8890967813989832  0.3935757595824398   F   F   F
  0.2218064832020374  0.8890967813989832  0.3935757595824398   F   F   F
  0.5555884044814974  0.8888231310370074  0.3938819729887584   F   F   F
  0.0000000000000000  0.0000000000000000  0.4886481250004522   F   F   F
  0.3334469292856070  0.0008666452400874  0.4885692213612600   F   F   F
  0.6656864554743080  0.0008666452400874  0.4885692213612600   F   F   F
  0.0008666452400874  0.3334469292856070  0.4885692213612600   F   F   F
  0.6656864554743080  0.3334469292856070  0.4885692213612600   F   F   F
  0.0008666452400874  0.6656864554743080  0.4885692213612600   F   F   F
  0.3334469292856070  0.6656864554743080  0.4885692213612600   F   F   F
  0.6666666269999979  0.6666666870000029  0.4888122658382130   F   F   F
  0.3333333129999971  0.3333333429999996  0.4826768643388419   F   F   F
  0.2717856943213131  0.3300748522153976  0.6741452824452470   T   T   T
  0.3981394224632833  0.3300748522153976  0.6741452824452470   T   T   T
 
  0.00000000E+00  0.00000000E+00  0.00000000E+00
  0.00000000E+00  0.00000000E+00  0.00000000E+00
  0.00000000E+00  0.00000000E+00  0.00000000E+00
  0.00000000E+00  0.00000000E+00  0.00000000E+00
  0.00000000E+00  0.00000000E+00  0.00000000E+00
  0.00000000E+00  0.00000000E+00  0.00000000E+00
  0.00000000E+00  0.00000000E+00  0.00000000E+00
  0.00000000E+00  0.00000000E+00  0.00000000E+00
  0.00000000E+00  0.00000000E+00  0.00000000E+00
  0.00000000E+00  0.00000000E+00  0.00000000E+00
  0.00000000E+00  0.00000000E+00  0.00000000E+00
  0.00000000E+00  0.00000000E+00  0.00000000E+00
  0.00000000E+00  0.00000000E+00  0.00000000E+00
  0.00000000E+00  0.00000000E+00  0.00000000E+00
  0.00000000E+00  0.00000000E+00  0.00000000E+00
  0.00000000E+00  0.00000000E+00  0.00000000E+00
  0.00000000E+00  0.00000000E+00  0.00000000E+00
  0.00000000E+00  0.00000000E+00  0.00000000E+00
  0.00000000E+00  0.00000000E+00  0.00000000E+00
  0.00000000E+00  0.00000000E+00  0.00000000E+00
  0.00000000E+00  0.00000000E+00  0.00000000E+00
  0.00000000E+00  0.00000000E+00  0.00000000E+00
  0.00000000E+00  0.00000000E+00  0.00000000E+00
  0.00000000E+00  0.00000000E+00  0.00000000E+00
  0.00000000E+00  0.00000000E+00  0.00000000E+00
  0.00000000E+00  0.00000000E+00  0.00000000E+00
  0.00000000E+00  0.00000000E+00  0.00000000E+00
  0.00000000E+00  0.00000000E+00  0.00000000E+00
  0.00000000E+00  0.00000000E+00  0.00000000E+00
  0.00000000E+00  0.00000000E+00  0.00000000E+00
  0.00000000E+00  0.00000000E+00  0.00000000E+00
  0.00000000E+00  0.00000000E+00  0.00000000E+00
  0.00000000E+00  0.00000000E+00  0.00000000E+00
  0.00000000E+00  0.00000000E+00  0.00000000E+00
  0.00000000E+00  0.00000000E+00  0.00000000E+00
  0.00000000E+00  0.00000000E+00  0.00000000E+00
  0.00000000E+00  0.00000000E+00  0.00000000E+00
  0.00000000E+00  0.00000000E+00  0.00000000E+00
