Au-Mo-CO2                               
   1.00000000000000     
     8.8135128021000000    0.0000000000000000    0.0000000000000000
     4.4067569092000003    7.6327256898000000    0.0000000000000000
     0.0000000000000000    0.0000000000000000   26.0203619261156334
   Au   Mo   C    O 
    35     1     1     2
Selective dynamics
Direct
  0.0000000000000000  0.0000000000000000  0.2029326088545673   F   F   F
  0.3333333429999996  0.0000000000000000  0.2029326088545673   F   F   F
  0.6666666870000029  0.0000000000000000  0.2029326088545673   F   F   F
  0.0000000000000000  0.3333333429999996  0.2029326088545673   F   F   F
  0.3333333129999971  0.3333333429999996  0.2029326088545673   F   F   F
  0.6666666870000029  0.3333333429999996  0.2029326088545673   F   F   F
  0.0000000000000000  0.6666666870000029  0.2029326088545673   F   F   F
  0.3333333429999996  0.6666666870000029  0.2029326088545673   F   F   F
  0.6666666269999979  0.6666666870000029  0.2029326088545673   F   F   F
  0.1111111190000003  0.1111111120000032  0.2951194171513976   F   F   F
  0.4444444180000033  0.1111111120000032  0.2951194171513976   F   F   F
  0.7777777909999983  0.1111111120000032  0.2951194171513976   F   F   F
  0.1111111270000009  0.4444444479999987  0.2951194171513976   F   F   F
  0.4444444780000012  0.4444444479999987  0.2951194171513976   F   F   F
  0.7777777310000005  0.4444444479999987  0.2951194171513976   F   F   F
  0.1111110900000014  0.7777777909999983  0.2951194171513976   F   F   F
  0.4444444479999987  0.7777777909999983  0.2951194171513976   F   F   F
  0.7777778510000033  0.7777777909999983  0.2951194171513976   F   F   F
  0.8885187391105802  0.2229625377788267  0.3879231456198298   F   F   F
  0.2223143366422278  0.2223143216422301  0.3860356668676701   F   F   F
  0.5553713867155423  0.2223143216422301  0.3860356668676701   F   F   F
  0.8865446325489899  0.5567277137255005  0.3869465632701719   F   F   F
  0.2223142916422276  0.5553713867155423  0.3860356668676701   F   F   F
  0.5567277137255005  0.5567277137255005  0.3869465632701719   F   F   F
  0.8885187391105802  0.8885187391105802  0.3879231456198298   F   F   F
  0.2229625677788434  0.8885187391105802  0.3879231456198298   F   F   F
  0.5567276537255026  0.8865446325489899  0.3869465632701719   F   F   F
  0.0000000000000000  0.0000000000000000  0.4803676206973506   F   F   F
  0.3334564073824424  0.0099117229930670  0.4819178669534594   F   F   F
  0.6566318996244931  0.0099117229930670  0.4819178669534594   F   F   F
  0.0099117229930670  0.3334564073824424  0.4819178669534594   F   F   F
  0.6566318996244931  0.3334564073824424  0.4819178669534594   F   F   F
  0.0099117229930670  0.6566318996244931  0.4819178669534594   F   F   F
  0.3334564073824424  0.6566318996244931  0.4819178669534594   F   F   F
  0.6666666269999979  0.6666666870000029  0.4803366453663074   F   F   F
  0.3333333129999971  0.3333333429999996  0.4701897238359294   F   F   F
  0.3333146020968289  0.3232692594244018  0.6267114003993187   T   T   T
  0.2055680648034735  0.3125183460978186  0.6265088932305116   T   T   T
  0.4611156927948034  0.3339574516301170  0.6263885813951144   T   T   T
 
  0.00000000E+00  0.00000000E+00  0.00000000E+00
  0.00000000E+00  0.00000000E+00  0.00000000E+00
  0.00000000E+00  0.00000000E+00  0.00000000E+00
  0.00000000E+00  0.00000000E+00  0.00000000E+00
  0.00000000E+00  0.00000000E+00  0.00000000E+00
  0.00000000E+00  0.00000000E+00  0.00000000E+00
  0.00000000E+00  0.00000000E+00  0.00000000E+00
  0.00000000E+00  0.00000000E+00  0.00000000E+00
  0.00000000E+00  0.00000000E+00  0.00000000E+00
  0.00000000E+00  0.00000000E+00  0.00000000E+00
  0.00000000E+00  0.00000000E+00  0.00000000E+00
  0.00000000E+00  0.00000000E+00  0.00000000E+00
  0.00000000E+00  0.00000000E+00  0.00000000E+00
  0.00000000E+00  0.00000000E+00  0.00000000E+00
  0.00000000E+00  0.00000000E+00  0.00000000E+00
  0.00000000E+00  0.00000000E+00  0.00000000E+00
  0.00000000E+00  0.00000000E+00  0.00000000E+00
  0.00000000E+00  0.00000000E+00  0.00000000E+00
  0.00000000E+00  0.00000000E+00  0.00000000E+00
  0.00000000E+00  0.00000000E+00  0.00000000E+00
  0.00000000E+00  0.00000000E+00  0.00000000E+00
  0.00000000E+00  0.00000000E+00  0.00000000E+00
  0.00000000E+00  0.00000000E+00  0.00000000E+00
  0.00000000E+00  0.00000000E+00  0.00000000E+00
  0.00000000E+00  0.00000000E+00  0.00000000E+00
  0.00000000E+00  0.00000000E+00  0.00000000E+00
  0.00000000E+00  0.00000000E+00  0.00000000E+00
  0.00000000E+00  0.00000000E+00  0.00000000E+00
  0.00000000E+00  0.00000000E+00  0.00000000E+00
  0.00000000E+00  0.00000000E+00  0.00000000E+00
  0.00000000E+00  0.00000000E+00  0.00000000E+00
  0.00000000E+00  0.00000000E+00  0.00000000E+00
  0.00000000E+00  0.00000000E+00  0.00000000E+00
  0.00000000E+00  0.00000000E+00  0.00000000E+00
  0.00000000E+00  0.00000000E+00  0.00000000E+00
  0.00000000E+00  0.00000000E+00  0.00000000E+00
  0.00000000E+00  0.00000000E+00  0.00000000E+00
  0.00000000E+00  0.00000000E+00  0.00000000E+00
  0.00000000E+00  0.00000000E+00  0.00000000E+00
