Cu-Mn-O2                                
   1.00000000000000     
     7.6967864037000000    0.0000000000000000    0.0000000000000000
     3.8483927580000001    6.6656128092999998    0.0000000000000000
     0.0000000000000000    0.0000000000000000   23.7897786731327727
   Cu   Mn   O 
    35     1     2
Selective dynamics
Direct
  0.0000000000000000  0.0000000000000000  0.2257927538771511   F   F   F
  0.3333333429999996  0.0000000000000000  0.2257927538771511   F   F   F
  0.6666666870000029  0.0000000000000000  0.2257927538771511   F   F   F
  0.0000000000000000  0.3333333429999996  0.2257927538771511   F   F   F
  0.3333333129999971  0.3333333429999996  0.2257927538771511   F   F   F
  0.6666666870000029  0.3333333429999996  0.2257927538771511   F   F   F
  0.0000000000000000  0.6666666870000029  0.2257927538771511   F   F   F
  0.3333333730000021  0.6666666870000029  0.2257927538771511   F   F   F
  0.6666666269999979  0.6666666870000029  0.2257927538771511   F   F   F
  0.1111111190000003  0.1111111120000032  0.3138473886514319   F   F   F
  0.4444444180000033  0.1111111120000032  0.3138473886514319   F   F   F
  0.7777777909999983  0.1111111120000032  0.3138473886514319   F   F   F
  0.1111111190000003  0.4444444479999987  0.3138473886514319   F   F   F
  0.4444444780000012  0.4444444479999987  0.3138473886514319   F   F   F
  0.7777777310000005  0.4444444479999987  0.3138473886514319   F   F   F
  0.1111111120000032  0.7777777310000005  0.3138473886514319   F   F   F
  0.4444444780000012  0.7777777310000005  0.3138473886514319   F   F   F
  0.7777778510000033  0.7777777310000005  0.3138473886514319   F   F   F
  0.8887762695621504  0.2224474768757005  0.4015703185932722   F   F   F
  0.2223565406890700  0.2223565256890723  0.4011222055381722   F   F   F
  0.5552869786218508  0.2223565256890723  0.4011222055381722   F   F   F
  0.8883373186776780  0.5558313106611621  0.4017217085078073   F   F   F
  0.2223565106890675  0.5552869186218601  0.4011222055381722   F   F   F
  0.5558313706611600  0.5558313106611621  0.4017217085078073   F   F   F
  0.8887762695621504  0.8887762695621504  0.4015703185932722   F   F   F
  0.2224474918756982  0.8887762695621504  0.4015703185932722   F   F   F
  0.5558313106611621  0.8883373186776780  0.4017217085078073   F   F   F
  0.0000000000000000  0.0000000000000000  0.4889567491075297   F   F   F
  0.3330900897624289  0.0029644724184621  0.4894150856680710   F   F   F
  0.6639454678191186  0.0029644724184621  0.4894150856680710   F   F   F
  0.0029644724184621  0.3330900897624289  0.4894150856680710   F   F   F
  0.6639454678191186  0.3330900897624289  0.4894150856680710   F   F   F
  0.0029644724184621  0.6639454678191186  0.4894150856680710   F   F   F
  0.3330901197624314  0.6639454678191186  0.4894150856680710   F   F   F
  0.6666666269999979  0.6666666870000029  0.4890349154660214   F   F   F
  0.3333333129999971  0.3333333429999996  0.4846208330191999   F   F   F
  0.2395674439077146  0.3315903090234555  0.5569782213886142   T   T   T
  0.4288422160688308  0.3315903090234555  0.5569782213886142   T   T   T
 
  0.00000000E+00  0.00000000E+00  0.00000000E+00
  0.00000000E+00  0.00000000E+00  0.00000000E+00
  0.00000000E+00  0.00000000E+00  0.00000000E+00
  0.00000000E+00  0.00000000E+00  0.00000000E+00
  0.00000000E+00  0.00000000E+00  0.00000000E+00
  0.00000000E+00  0.00000000E+00  0.00000000E+00
  0.00000000E+00  0.00000000E+00  0.00000000E+00
  0.00000000E+00  0.00000000E+00  0.00000000E+00
  0.00000000E+00  0.00000000E+00  0.00000000E+00
  0.00000000E+00  0.00000000E+00  0.00000000E+00
  0.00000000E+00  0.00000000E+00  0.00000000E+00
  0.00000000E+00  0.00000000E+00  0.00000000E+00
  0.00000000E+00  0.00000000E+00  0.00000000E+00
  0.00000000E+00  0.00000000E+00  0.00000000E+00
  0.00000000E+00  0.00000000E+00  0.00000000E+00
  0.00000000E+00  0.00000000E+00  0.00000000E+00
  0.00000000E+00  0.00000000E+00  0.00000000E+00
  0.00000000E+00  0.00000000E+00  0.00000000E+00
  0.00000000E+00  0.00000000E+00  0.00000000E+00
  0.00000000E+00  0.00000000E+00  0.00000000E+00
  0.00000000E+00  0.00000000E+00  0.00000000E+00
  0.00000000E+00  0.00000000E+00  0.00000000E+00
  0.00000000E+00  0.00000000E+00  0.00000000E+00
  0.00000000E+00  0.00000000E+00  0.00000000E+00
  0.00000000E+00  0.00000000E+00  0.00000000E+00
  0.00000000E+00  0.00000000E+00  0.00000000E+00
  0.00000000E+00  0.00000000E+00  0.00000000E+00
  0.00000000E+00  0.00000000E+00  0.00000000E+00
  0.00000000E+00  0.00000000E+00  0.00000000E+00
  0.00000000E+00  0.00000000E+00  0.00000000E+00
  0.00000000E+00  0.00000000E+00  0.00000000E+00
  0.00000000E+00  0.00000000E+00  0.00000000E+00
  0.00000000E+00  0.00000000E+00  0.00000000E+00
  0.00000000E+00  0.00000000E+00  0.00000000E+00
  0.00000000E+00  0.00000000E+00  0.00000000E+00
  0.00000000E+00  0.00000000E+00  0.00000000E+00
  0.00000000E+00  0.00000000E+00  0.00000000E+00
  0.00000000E+00  0.00000000E+00  0.00000000E+00
