Au-Rh-H2                                
   1.00000000000000     
     8.8135128021000000    0.0000000000000000    0.0000000000000000
     4.4067569092000003    7.6327256898000000    0.0000000000000000
     0.0000000000000000    0.0000000000000000   23.5760271339432883
   Au   Rh   H 
    35     1     2
Selective dynamics
Direct
  0.0000000000000000  0.0000000000000000  0.2239724233013121   F   F   F
  0.3333333429999996  0.0000000000000000  0.2239724233013121   F   F   F
  0.6666666870000029  0.0000000000000000  0.2239724233013121   F   F   F
  0.0000000000000000  0.3333333429999996  0.2239724233013121   F   F   F
  0.3333333129999971  0.3333333429999996  0.2239724233013121   F   F   F
  0.6666666870000029  0.3333333429999996  0.2239724233013121   F   F   F
  0.0000000000000000  0.6666666870000029  0.2239724233013121   F   F   F
  0.3333333429999996  0.6666666870000029  0.2239724233013121   F   F   F
  0.6666666269999979  0.6666666870000029  0.2239724233013121   F   F   F
  0.1111111190000003  0.1111111120000032  0.3257170515658174   F   F   F
  0.4444444180000033  0.1111111120000032  0.3257170515658174   F   F   F
  0.7777777909999983  0.1111111120000032  0.3257170515658174   F   F   F
  0.1111111270000009  0.4444444479999987  0.3257170515658174   F   F   F
  0.4444444780000012  0.4444444479999987  0.3257170515658174   F   F   F
  0.7777777310000005  0.4444444479999987  0.3257170515658174   F   F   F
  0.1111110900000014  0.7777777909999983  0.3257170515658174   F   F   F
  0.4444444479999987  0.7777777909999983  0.3257170515658174   F   F   F
  0.7777778510000033  0.7777777909999983  0.3257170515658174   F   F   F
  0.8888859662926478  0.2222280834147128  0.4272537966238588   F   F   F
  0.2221307948628635  0.2221307798628587  0.4261709676299716   F   F   F
  0.5557384702742709  0.2221307798628587  0.4261709676299716   F   F   F
  0.8878507211795323  0.5560746694102292  0.4270270225824504   F   F   F
  0.2221307498628633  0.5557384702742709  0.4261709676299716   F   F   F
  0.5560746694102292  0.5560746694102292  0.4270270225824504   F   F   F
  0.8888859662926478  0.8888859662926478  0.4272537966238588   F   F   F
  0.2222281134147224  0.8888859662926478  0.4272537966238588   F   F   F
  0.5560746094102313  0.8878507211795323  0.4270270225824504   F   F   F
  0.0000000000000000  0.0000000000000000  0.5299752656181482   F   F   F
  0.3332608877112690  0.0039849546408988  0.5292854242289380   F   F   F
  0.6627541876478489  0.0039849546408988  0.5292854242289380   F   F   F
  0.0039849546408988  0.3332608877112690  0.5292854242289380   F   F   F
  0.6627541876478489  0.3332608877112690  0.5292854242289380   F   F   F
  0.0039849546408988  0.6627541876478489  0.5292854242289380   F   F   F
  0.3332608877112690  0.6627541876478489  0.5292854242289380   F   F   F
  0.6666666269999979  0.6666666870000029  0.5299714593051306   F   F   F
  0.3333333129999971  0.3333333429999996  0.5200718657973695   F   F   F
  0.2812490882594768  0.3306136269794977  0.5878544692730227   T   T   T
  0.3881372537610264  0.3306136269794977  0.5878544692730227   T   T   T
 
  0.00000000E+00  0.00000000E+00  0.00000000E+00
  0.00000000E+00  0.00000000E+00  0.00000000E+00
  0.00000000E+00  0.00000000E+00  0.00000000E+00
  0.00000000E+00  0.00000000E+00  0.00000000E+00
  0.00000000E+00  0.00000000E+00  0.00000000E+00
  0.00000000E+00  0.00000000E+00  0.00000000E+00
  0.00000000E+00  0.00000000E+00  0.00000000E+00
  0.00000000E+00  0.00000000E+00  0.00000000E+00
  0.00000000E+00  0.00000000E+00  0.00000000E+00
  0.00000000E+00  0.00000000E+00  0.00000000E+00
  0.00000000E+00  0.00000000E+00  0.00000000E+00
  0.00000000E+00  0.00000000E+00  0.00000000E+00
  0.00000000E+00  0.00000000E+00  0.00000000E+00
  0.00000000E+00  0.00000000E+00  0.00000000E+00
  0.00000000E+00  0.00000000E+00  0.00000000E+00
  0.00000000E+00  0.00000000E+00  0.00000000E+00
  0.00000000E+00  0.00000000E+00  0.00000000E+00
  0.00000000E+00  0.00000000E+00  0.00000000E+00
  0.00000000E+00  0.00000000E+00  0.00000000E+00
  0.00000000E+00  0.00000000E+00  0.00000000E+00
  0.00000000E+00  0.00000000E+00  0.00000000E+00
  0.00000000E+00  0.00000000E+00  0.00000000E+00
  0.00000000E+00  0.00000000E+00  0.00000000E+00
  0.00000000E+00  0.00000000E+00  0.00000000E+00
  0.00000000E+00  0.00000000E+00  0.00000000E+00
  0.00000000E+00  0.00000000E+00  0.00000000E+00
  0.00000000E+00  0.00000000E+00  0.00000000E+00
  0.00000000E+00  0.00000000E+00  0.00000000E+00
  0.00000000E+00  0.00000000E+00  0.00000000E+00
  0.00000000E+00  0.00000000E+00  0.00000000E+00
  0.00000000E+00  0.00000000E+00  0.00000000E+00
  0.00000000E+00  0.00000000E+00  0.00000000E+00
  0.00000000E+00  0.00000000E+00  0.00000000E+00
  0.00000000E+00  0.00000000E+00  0.00000000E+00
  0.00000000E+00  0.00000000E+00  0.00000000E+00
  0.00000000E+00  0.00000000E+00  0.00000000E+00
  0.00000000E+00  0.00000000E+00  0.00000000E+00
  0.00000000E+00  0.00000000E+00  0.00000000E+00
