Au-Re-CO                                
   1.00000000000000     
     8.8135128021000000    0.0000000000000000    0.0000000000000000
     4.4067569092000003    7.6327256898000000    0.0000000000000000
     0.0000000000000000    0.0000000000000000   25.0106923578331006
   Au   Re   C    O 
    35     1     1     1
Selective dynamics
Direct
  0.0000000000000000  0.0000000000000000  0.2111249002410318   F   F   F
  0.3333333429999996  0.0000000000000000  0.2111249002410318   F   F   F
  0.6666666870000029  0.0000000000000000  0.2111249002410318   F   F   F
  0.0000000000000000  0.3333333429999996  0.2111249002410318   F   F   F
  0.3333333129999971  0.3333333429999996  0.2111249002410318   F   F   F
  0.6666666870000029  0.3333333429999996  0.2111249002410318   F   F   F
  0.0000000000000000  0.6666666870000029  0.2111249002410318   F   F   F
  0.3333333429999996  0.6666666870000029  0.2111249002410318   F   F   F
  0.6666666269999979  0.6666666870000029  0.2111249002410318   F   F   F
  0.1111111190000003  0.1111111120000032  0.3070332454550666   F   F   F
  0.4444444180000033  0.1111111120000032  0.3070332454550666   F   F   F
  0.7777777909999983  0.1111111120000032  0.3070332454550666   F   F   F
  0.1111111270000009  0.4444444479999987  0.3070332454550666   F   F   F
  0.4444444780000012  0.4444444479999987  0.3070332454550666   F   F   F
  0.7777777310000005  0.4444444479999987  0.3070332454550666   F   F   F
  0.1111110900000014  0.7777777909999983  0.3070332454550666   F   F   F
  0.4444444479999987  0.7777777909999983  0.3070332454550666   F   F   F
  0.7777778510000033  0.7777777909999983  0.3070332454550666   F   F   F
  0.8882054440890883  0.2235891278218176  0.4037996685205698   F   F   F
  0.2219396944301835  0.2219396794301929  0.4013295101637482   F   F   F
  0.5561206711396167  0.2219396794301929  0.4013295101637482   F   F   F
  0.8861596163472925  0.5569202218263527  0.4025045826018712   F   F   F
  0.2219396494301833  0.5561206711396167  0.4013295101637482   F   F   F
  0.5569202218263527  0.5569202218263527  0.4025045826018712   F   F   F
  0.8882054440890883  0.8882054440890883  0.4037996685205698   F   F   F
  0.2235891578218201  0.8882054440890883  0.4037996685205698   F   F   F
  0.5569201618263477  0.8861596163472925  0.4025045826018712   F   F   F
  0.0000000000000000  0.0000000000000000  0.4997204034113096   F   F   F
  0.3333638253804168  0.0113785939197868  0.5012164538794366   F   F   F
  0.6552576106997776  0.0113785939197868  0.5012164538794366   F   F   F
  0.0113785939197868  0.3333638253804168  0.5012164538794366   F   F   F
  0.6552576106997776  0.3333638253804168  0.5012164538794366   F   F   F
  0.0113785939197868  0.6552576106997776  0.5012164538794366   F   F   F
  0.3333638253804168  0.6552576106997776  0.5012164538794366   F   F   F
  0.6666666269999979  0.6666666870000029  0.4996373986663798   F   F   F
  0.3333333129999971  0.3333333429999996  0.4879809773047512   F   F   F
  0.3333333129999971  0.3333333429999996  0.5648400250723966   T   T   T
  0.3333333129999971  0.3333333429999996  0.6116567880227309   T   T   T
 
  0.00000000E+00  0.00000000E+00  0.00000000E+00
  0.00000000E+00  0.00000000E+00  0.00000000E+00
  0.00000000E+00  0.00000000E+00  0.00000000E+00
  0.00000000E+00  0.00000000E+00  0.00000000E+00
  0.00000000E+00  0.00000000E+00  0.00000000E+00
  0.00000000E+00  0.00000000E+00  0.00000000E+00
  0.00000000E+00  0.00000000E+00  0.00000000E+00
  0.00000000E+00  0.00000000E+00  0.00000000E+00
  0.00000000E+00  0.00000000E+00  0.00000000E+00
  0.00000000E+00  0.00000000E+00  0.00000000E+00
  0.00000000E+00  0.00000000E+00  0.00000000E+00
  0.00000000E+00  0.00000000E+00  0.00000000E+00
  0.00000000E+00  0.00000000E+00  0.00000000E+00
  0.00000000E+00  0.00000000E+00  0.00000000E+00
  0.00000000E+00  0.00000000E+00  0.00000000E+00
  0.00000000E+00  0.00000000E+00  0.00000000E+00
  0.00000000E+00  0.00000000E+00  0.00000000E+00
  0.00000000E+00  0.00000000E+00  0.00000000E+00
  0.00000000E+00  0.00000000E+00  0.00000000E+00
  0.00000000E+00  0.00000000E+00  0.00000000E+00
  0.00000000E+00  0.00000000E+00  0.00000000E+00
  0.00000000E+00  0.00000000E+00  0.00000000E+00
  0.00000000E+00  0.00000000E+00  0.00000000E+00
  0.00000000E+00  0.00000000E+00  0.00000000E+00
  0.00000000E+00  0.00000000E+00  0.00000000E+00
  0.00000000E+00  0.00000000E+00  0.00000000E+00
  0.00000000E+00  0.00000000E+00  0.00000000E+00
  0.00000000E+00  0.00000000E+00  0.00000000E+00
  0.00000000E+00  0.00000000E+00  0.00000000E+00
  0.00000000E+00  0.00000000E+00  0.00000000E+00
  0.00000000E+00  0.00000000E+00  0.00000000E+00
  0.00000000E+00  0.00000000E+00  0.00000000E+00
  0.00000000E+00  0.00000000E+00  0.00000000E+00
  0.00000000E+00  0.00000000E+00  0.00000000E+00
  0.00000000E+00  0.00000000E+00  0.00000000E+00
  0.00000000E+00  0.00000000E+00  0.00000000E+00
  0.00000000E+00  0.00000000E+00  0.00000000E+00
  0.00000000E+00  0.00000000E+00  0.00000000E+00
