Cu-Ir-OH                                
   1.00000000000000     
     7.6967864037000000    0.0000000000000000    0.0000000000000000
     3.8483927580000001    6.6656128092999998    0.0000000000000000
     0.0000000000000000    0.0000000000000000   24.1798410312626899
   Cu   Ir   O    H 
    35     1     1     1
Selective dynamics
Direct
  0.0000000000000000  0.0000000000000000  0.2221503290195130   F   F   F
  0.3333333429999996  0.0000000000000000  0.2221503290195130   F   F   F
  0.6666666870000029  0.0000000000000000  0.2221503290195130   F   F   F
  0.0000000000000000  0.3333333429999996  0.2221503290195130   F   F   F
  0.3333333129999971  0.3333333429999996  0.2221503290195130   F   F   F
  0.6666666870000029  0.3333333429999996  0.2221503290195130   F   F   F
  0.0000000000000000  0.6666666870000029  0.2221503290195130   F   F   F
  0.3333333730000021  0.6666666870000029  0.2221503290195130   F   F   F
  0.6666666269999979  0.6666666870000029  0.2221503290195130   F   F   F
  0.1111111190000003  0.1111111120000032  0.3087844913250208   F   F   F
  0.4444444180000033  0.1111111120000032  0.3087844913250208   F   F   F
  0.7777777909999983  0.1111111120000032  0.3087844913250208   F   F   F
  0.1111111190000003  0.4444444479999987  0.3087844913250208   F   F   F
  0.4444444780000012  0.4444444479999987  0.3087844913250208   F   F   F
  0.7777777310000005  0.4444444479999987  0.3087844913250208   F   F   F
  0.1111111120000032  0.7777777310000005  0.3087844913250208   F   F   F
  0.4444444780000012  0.7777777310000005  0.3087844913250208   F   F   F
  0.7777778510000033  0.7777777310000005  0.3087844913250208   F   F   F
  0.8884058402158530  0.2231883355683024  0.3954413341677281   F   F   F
  0.2210473199912713  0.2210473049912736  0.3941884445935600   F   F   F
  0.5579054200174483  0.2210473049912736  0.3941884445935600   F   F   F
  0.8880761924417300  0.5559618737791325  0.3953812723919867   F   F   F
  0.2210472899912830  0.5579053600174504  0.3941884445935600   F   F   F
  0.5559619337791304  0.5559618737791325  0.3953812723919867   F   F   F
  0.8884058402158530  0.8884058402158530  0.3954413341677281   F   F   F
  0.2231883505683001  0.8884058402158530  0.3954413341677281   F   F   F
  0.5559618737791325  0.8880761924417300  0.3953812723919867   F   F   F
  0.0000000000000000  0.0000000000000000  0.4809798408060502   F   F   F
  0.3327638239359914  0.9992277974318213  0.4822649765683593   F   F   F
  0.6680084086321898  0.9992277974318213  0.4822649765683593   F   F   F
  0.9992277974318213  0.3327638239359914  0.4822649765683593   F   F   F
  0.6680084086321898  0.3327638239359914  0.4822649765683593   F   F   F
  0.9992277974318213  0.6680084086321898  0.4822649765683593   F   F   F
  0.3327638539359867  0.6680084086321898  0.4822649765683593   F   F   F
  0.6666666269999979  0.6666666870000029  0.4809439463895373   F   F   F
  0.3333333129999971  0.3333333429999996  0.4797434519806032   F   F   F
  0.3333333129999971  0.3333333429999996  0.5617899848366026   T   T   T
  0.3333333129999971  0.3333333429999996  0.6016730342673120   T   T   T
 
  0.00000000E+00  0.00000000E+00  0.00000000E+00
  0.00000000E+00  0.00000000E+00  0.00000000E+00
  0.00000000E+00  0.00000000E+00  0.00000000E+00
  0.00000000E+00  0.00000000E+00  0.00000000E+00
  0.00000000E+00  0.00000000E+00  0.00000000E+00
  0.00000000E+00  0.00000000E+00  0.00000000E+00
  0.00000000E+00  0.00000000E+00  0.00000000E+00
  0.00000000E+00  0.00000000E+00  0.00000000E+00
  0.00000000E+00  0.00000000E+00  0.00000000E+00
  0.00000000E+00  0.00000000E+00  0.00000000E+00
  0.00000000E+00  0.00000000E+00  0.00000000E+00
  0.00000000E+00  0.00000000E+00  0.00000000E+00
  0.00000000E+00  0.00000000E+00  0.00000000E+00
  0.00000000E+00  0.00000000E+00  0.00000000E+00
  0.00000000E+00  0.00000000E+00  0.00000000E+00
  0.00000000E+00  0.00000000E+00  0.00000000E+00
  0.00000000E+00  0.00000000E+00  0.00000000E+00
  0.00000000E+00  0.00000000E+00  0.00000000E+00
  0.00000000E+00  0.00000000E+00  0.00000000E+00
  0.00000000E+00  0.00000000E+00  0.00000000E+00
  0.00000000E+00  0.00000000E+00  0.00000000E+00
  0.00000000E+00  0.00000000E+00  0.00000000E+00
  0.00000000E+00  0.00000000E+00  0.00000000E+00
  0.00000000E+00  0.00000000E+00  0.00000000E+00
  0.00000000E+00  0.00000000E+00  0.00000000E+00
  0.00000000E+00  0.00000000E+00  0.00000000E+00
  0.00000000E+00  0.00000000E+00  0.00000000E+00
  0.00000000E+00  0.00000000E+00  0.00000000E+00
  0.00000000E+00  0.00000000E+00  0.00000000E+00
  0.00000000E+00  0.00000000E+00  0.00000000E+00
  0.00000000E+00  0.00000000E+00  0.00000000E+00
  0.00000000E+00  0.00000000E+00  0.00000000E+00
  0.00000000E+00  0.00000000E+00  0.00000000E+00
  0.00000000E+00  0.00000000E+00  0.00000000E+00
  0.00000000E+00  0.00000000E+00  0.00000000E+00
  0.00000000E+00  0.00000000E+00  0.00000000E+00
  0.00000000E+00  0.00000000E+00  0.00000000E+00
  0.00000000E+00  0.00000000E+00  0.00000000E+00
