Au-Co-O2                                
   1.00000000000000     
     8.8135128021000000    0.0000000000000000    0.0000000000000000
     4.4067569092000003    7.6327256898000000    0.0000000000000000
     0.0000000000000000    0.0000000000000000   24.3134088421207828
   Au   Co   O 
    35     1     2
Selective dynamics
Direct
  0.0000000000000000  0.0000000000000000  0.2171797448599193   F   F   F
  0.3333333429999996  0.0000000000000000  0.2171797448599193   F   F   F
  0.6666666870000029  0.0000000000000000  0.2171797448599193   F   F   F
  0.0000000000000000  0.3333333429999996  0.2171797448599193   F   F   F
  0.3333333129999971  0.3333333429999996  0.2171797448599193   F   F   F
  0.6666666870000029  0.3333333429999996  0.2171797448599193   F   F   F
  0.0000000000000000  0.6666666870000029  0.2171797448599193   F   F   F
  0.3333333429999996  0.6666666870000029  0.2171797448599193   F   F   F
  0.6666666269999979  0.6666666870000029  0.2171797448599193   F   F   F
  0.1111111190000003  0.1111111120000032  0.3158386426012072   F   F   F
  0.4444444180000033  0.1111111120000032  0.3158386426012072   F   F   F
  0.7777777909999983  0.1111111120000032  0.3158386426012072   F   F   F
  0.1111111270000009  0.4444444479999987  0.3158386426012072   F   F   F
  0.4444444780000012  0.4444444479999987  0.3158386426012072   F   F   F
  0.7777777310000005  0.4444444479999987  0.3158386426012072   F   F   F
  0.1111110900000014  0.7777777909999983  0.3158386426012072   F   F   F
  0.4444444479999987  0.7777777909999983  0.3158386426012072   F   F   F
  0.7777778510000033  0.7777777909999983  0.3158386426012072   F   F   F
  0.8889492676611113  0.2221014806777717  0.4142457550086931   F   F   F
  0.2232171359122432  0.2232171209122527  0.4133831224690496   F   F   F
  0.5535657881754972  0.2232171209122527  0.4133831224690496   F   F   F
  0.8869729083961175  0.5565135758019366  0.4136294640838187   F   F   F
  0.2232170909122431  0.5535657881754972  0.4133831224690496   F   F   F
  0.5565135758019366  0.5565135758019366  0.4136294640838187   F   F   F
  0.8889492676611113  0.8889492676611113  0.4142457550086931   F   F   F
  0.2221015106777671  0.8889492676611113  0.4142457550086931   F   F   F
  0.5565135158019388  0.8869729083961175  0.4136294640838187   F   F   F
  0.0000000000000000  0.0000000000000000  0.5131590651734470   F   F   F
  0.3335061335002223  0.0084163631675267  0.5123011115809177   F   F   F
  0.6580775333322535  0.0084163631675267  0.5123011115809177   F   F   F
  0.0084163631675267  0.3335061335002223  0.5123011115809177   F   F   F
  0.6580775333322535  0.3335061335002223  0.5123011115809177   F   F   F
  0.0084163631675267  0.6580775333322535  0.5123011115809177   F   F   F
  0.3335061335002223  0.6580775333322535  0.5123011115809177   F   F   F
  0.6666666269999979  0.6666666870000029  0.5137405474457211   F   F   F
  0.3333333129999971  0.3333333429999996  0.4997624811447707   F   F   F
  0.2554205504049937  0.3333608400428213  0.5734311478838395   T   T   T
  0.4112185785521860  0.3333608400428213  0.5734311478838395   T   T   T
 
  0.00000000E+00  0.00000000E+00  0.00000000E+00
  0.00000000E+00  0.00000000E+00  0.00000000E+00
  0.00000000E+00  0.00000000E+00  0.00000000E+00
  0.00000000E+00  0.00000000E+00  0.00000000E+00
  0.00000000E+00  0.00000000E+00  0.00000000E+00
  0.00000000E+00  0.00000000E+00  0.00000000E+00
  0.00000000E+00  0.00000000E+00  0.00000000E+00
  0.00000000E+00  0.00000000E+00  0.00000000E+00
  0.00000000E+00  0.00000000E+00  0.00000000E+00
  0.00000000E+00  0.00000000E+00  0.00000000E+00
  0.00000000E+00  0.00000000E+00  0.00000000E+00
  0.00000000E+00  0.00000000E+00  0.00000000E+00
  0.00000000E+00  0.00000000E+00  0.00000000E+00
  0.00000000E+00  0.00000000E+00  0.00000000E+00
  0.00000000E+00  0.00000000E+00  0.00000000E+00
  0.00000000E+00  0.00000000E+00  0.00000000E+00
  0.00000000E+00  0.00000000E+00  0.00000000E+00
  0.00000000E+00  0.00000000E+00  0.00000000E+00
  0.00000000E+00  0.00000000E+00  0.00000000E+00
  0.00000000E+00  0.00000000E+00  0.00000000E+00
  0.00000000E+00  0.00000000E+00  0.00000000E+00
  0.00000000E+00  0.00000000E+00  0.00000000E+00
  0.00000000E+00  0.00000000E+00  0.00000000E+00
  0.00000000E+00  0.00000000E+00  0.00000000E+00
  0.00000000E+00  0.00000000E+00  0.00000000E+00
  0.00000000E+00  0.00000000E+00  0.00000000E+00
  0.00000000E+00  0.00000000E+00  0.00000000E+00
  0.00000000E+00  0.00000000E+00  0.00000000E+00
  0.00000000E+00  0.00000000E+00  0.00000000E+00
  0.00000000E+00  0.00000000E+00  0.00000000E+00
  0.00000000E+00  0.00000000E+00  0.00000000E+00
  0.00000000E+00  0.00000000E+00  0.00000000E+00
  0.00000000E+00  0.00000000E+00  0.00000000E+00
  0.00000000E+00  0.00000000E+00  0.00000000E+00
  0.00000000E+00  0.00000000E+00  0.00000000E+00
  0.00000000E+00  0.00000000E+00  0.00000000E+00
  0.00000000E+00  0.00000000E+00  0.00000000E+00
  0.00000000E+00  0.00000000E+00  0.00000000E+00
