Cu-Ti-OOH                               
   1.00000000000000     
     7.6967864037000000    0.0000000000000000    0.0000000000000000
     3.8483927580000001    6.6656128092999998    0.0000000000000000
     0.0000000000000000    0.0000000000000000   25.3788956433894519
   Cu   Ti   O    H 
    35     1     2     1
Selective dynamics
Direct
  0.0000000000000000  0.0000000000000000  0.2116545856136796   F   F   F
  0.3333333429999996  0.0000000000000000  0.2116545856136796   F   F   F
  0.6666666870000029  0.0000000000000000  0.2116545856136796   F   F   F
  0.0000000000000000  0.3333333429999996  0.2116545856136796   F   F   F
  0.3333333129999971  0.3333333429999996  0.2116545856136796   F   F   F
  0.6666666870000029  0.3333333429999996  0.2116545856136796   F   F   F
  0.0000000000000000  0.6666666870000029  0.2116545856136796   F   F   F
  0.3333333730000021  0.6666666870000029  0.2116545856136796   F   F   F
  0.6666666269999979  0.6666666870000029  0.2116545856136796   F   F   F
  0.1111111190000003  0.1111111120000032  0.2941956189927097   F   F   F
  0.4444444180000033  0.1111111120000032  0.2941956189927097   F   F   F
  0.7777777909999983  0.1111111120000032  0.2941956189927097   F   F   F
  0.1111111190000003  0.4444444479999987  0.2941956189927097   F   F   F
  0.4444444780000012  0.4444444479999987  0.2941956189927097   F   F   F
  0.7777777310000005  0.4444444479999987  0.2941956189927097   F   F   F
  0.1111111120000032  0.7777777310000005  0.2941956189927097   F   F   F
  0.4444444780000012  0.7777777310000005  0.2941956189927097   F   F   F
  0.7777778510000033  0.7777777310000005  0.2941956189927097   F   F   F
  0.8892042217113882  0.2215915725772177  0.3758718002061201   F   F   F
  0.2226835207724065  0.2226835057724230  0.3767884781554187   F   F   F
  0.5546330184551636  0.2226835057724230  0.3767884781554187   F   F   F
  0.8887364208208766  0.5556317595895592  0.3765250131577105   F   F   F
  0.2226834907724182  0.5546329584551728  0.3767884781554187   F   F   F
  0.5556318195895571  0.5556317595895592  0.3765250131577105   F   F   F
  0.8892042217113882  0.8892042217113882  0.3758718002061201   F   F   F
  0.2215915875772225  0.8892042217113882  0.3758718002061201   F   F   F
  0.5556317595895592  0.8887364208208766  0.3765250131577105   F   F   F
  0.0000000000000000  0.0000000000000000  0.4584559555747774   F   F   F
  0.3338138806984077  0.9976074362270424  0.4589761392698009   F   F   F
  0.6685787130745666  0.9976074362270424  0.4589761392698009   F   F   F
  0.9976074362270424  0.3338138806984077  0.4589761392698009   F   F   F
  0.6685787130745666  0.3338138806984077  0.4589761392698009   F   F   F
  0.9976074362270424  0.6685787130745666  0.4589761392698009   F   F   F
  0.3338139106984102  0.6685787130745666  0.4589761392698009   F   F   F
  0.6666666269999979  0.6666666870000029  0.4593541393210501   F   F   F
  0.3333333129999971  0.3333333429999996  0.4639831068977571   F   F   F
  0.3330574680468033  0.3333744661914650  0.5352671415828638   T   T   T
  0.3030214097355071  0.3333334435371214  0.5901328979031177   T   T   T
  0.4225559218024912  0.3334837372226502  0.6037038101305043   T   T   T
 
  0.00000000E+00  0.00000000E+00  0.00000000E+00
  0.00000000E+00  0.00000000E+00  0.00000000E+00
  0.00000000E+00  0.00000000E+00  0.00000000E+00
  0.00000000E+00  0.00000000E+00  0.00000000E+00
  0.00000000E+00  0.00000000E+00  0.00000000E+00
  0.00000000E+00  0.00000000E+00  0.00000000E+00
  0.00000000E+00  0.00000000E+00  0.00000000E+00
  0.00000000E+00  0.00000000E+00  0.00000000E+00
  0.00000000E+00  0.00000000E+00  0.00000000E+00
  0.00000000E+00  0.00000000E+00  0.00000000E+00
  0.00000000E+00  0.00000000E+00  0.00000000E+00
  0.00000000E+00  0.00000000E+00  0.00000000E+00
  0.00000000E+00  0.00000000E+00  0.00000000E+00
  0.00000000E+00  0.00000000E+00  0.00000000E+00
  0.00000000E+00  0.00000000E+00  0.00000000E+00
  0.00000000E+00  0.00000000E+00  0.00000000E+00
  0.00000000E+00  0.00000000E+00  0.00000000E+00
  0.00000000E+00  0.00000000E+00  0.00000000E+00
  0.00000000E+00  0.00000000E+00  0.00000000E+00
  0.00000000E+00  0.00000000E+00  0.00000000E+00
  0.00000000E+00  0.00000000E+00  0.00000000E+00
  0.00000000E+00  0.00000000E+00  0.00000000E+00
  0.00000000E+00  0.00000000E+00  0.00000000E+00
  0.00000000E+00  0.00000000E+00  0.00000000E+00
  0.00000000E+00  0.00000000E+00  0.00000000E+00
  0.00000000E+00  0.00000000E+00  0.00000000E+00
  0.00000000E+00  0.00000000E+00  0.00000000E+00
  0.00000000E+00  0.00000000E+00  0.00000000E+00
  0.00000000E+00  0.00000000E+00  0.00000000E+00
  0.00000000E+00  0.00000000E+00  0.00000000E+00
  0.00000000E+00  0.00000000E+00  0.00000000E+00
  0.00000000E+00  0.00000000E+00  0.00000000E+00
  0.00000000E+00  0.00000000E+00  0.00000000E+00
  0.00000000E+00  0.00000000E+00  0.00000000E+00
  0.00000000E+00  0.00000000E+00  0.00000000E+00
  0.00000000E+00  0.00000000E+00  0.00000000E+00
  0.00000000E+00  0.00000000E+00  0.00000000E+00
  0.00000000E+00  0.00000000E+00  0.00000000E+00
  0.00000000E+00  0.00000000E+00  0.00000000E+00
