Au-Fe-H2O                               
   1.00000000000000     
     8.8135128021000000    0.0000000000000000    0.0000000000000000
     4.4067569092000003    7.6327256898000000    0.0000000000000000
     0.0000000000000000    0.0000000000000000   24.7442300385987473
   Au   Fe   H    O 
    35     1     2     1
Selective dynamics
Direct
  0.0000000000000000  0.0000000000000000  0.2133984335244890   F   F   F
  0.3333333429999996  0.0000000000000000  0.2133984335244890   F   F   F
  0.6666666870000029  0.0000000000000000  0.2133984335244890   F   F   F
  0.0000000000000000  0.3333333429999996  0.2133984335244890   F   F   F
  0.3333333129999971  0.3333333429999996  0.2133984335244890   F   F   F
  0.6666666870000029  0.3333333429999996  0.2133984335244890   F   F   F
  0.0000000000000000  0.6666666870000029  0.2133984335244890   F   F   F
  0.3333333429999996  0.6666666870000029  0.2133984335244890   F   F   F
  0.6666666269999979  0.6666666870000029  0.2133984335244890   F   F   F
  0.1111111190000003  0.1111111120000032  0.3103395835604914   F   F   F
  0.4444444180000033  0.1111111120000032  0.3103395835604914   F   F   F
  0.7777777909999983  0.1111111120000032  0.3103395835604914   F   F   F
  0.1111111270000009  0.4444444479999987  0.3103395835604914   F   F   F
  0.4444444780000012  0.4444444479999987  0.3103395835604914   F   F   F
  0.7777777310000005  0.4444444479999987  0.3103395835604914   F   F   F
  0.1111110900000014  0.7777777909999983  0.3103395835604914   F   F   F
  0.4444444479999987  0.7777777909999983  0.3103395835604914   F   F   F
  0.7777778510000033  0.7777777909999983  0.3103395835604914   F   F   F
  0.8888977238053712  0.2222045683892588  0.4071734655337522   F   F   F
  0.2233416758201230  0.2233416608201324  0.4061828234984119   F   F   F
  0.5533167083597377  0.2233416608201324  0.4061828234984119   F   F   F
  0.8867027054939101  0.5566486772530368  0.4066064984602065   F   F   F
  0.2233416308201228  0.5533167083597377  0.4061828234984119   F   F   F
  0.5566486772530368  0.5566486772530368  0.4066064984602065   F   F   F
  0.8888977238053712  0.8888977238053712  0.4071734655337522   F   F   F
  0.2222045983892613  0.8888977238053712  0.4071734655337522   F   F   F
  0.5566486172530531  0.8867027054939101  0.4066064984602065   F   F   F
  0.0000000000000000  0.0000000000000000  0.5046420727301779   F   F   F
  0.3334090100058518  0.0097494303455079  0.5039238414378673   F   F   F
  0.6568415896486428  0.0097494303455079  0.5039238414378673   F   F   F
  0.0097494303455079  0.3334090100058518  0.5039238414378673   F   F   F
  0.6568415896486428  0.3334090100058518  0.5039238414378673   F   F   F
  0.0097494303455079  0.6568415896486428  0.5039238414378673   F   F   F
  0.3334090100058518  0.6568415896486428  0.5039238414378673   F   F   F
  0.6666666269999979  0.6666666870000029  0.5048376336413511   F   F   F
  0.3333333129999971  0.3333333429999996  0.4914465067461222   F   F   F
  0.2799908875946642  0.2613342621359465  0.5845622748731074   T   T   T
  0.4578735848986639  0.2613416591656801  0.5847372406927889   T   T   T
  0.3327465702859698  0.3338564714220311  0.5763323234748654   T   T   T
 
  0.00000000E+00  0.00000000E+00  0.00000000E+00
  0.00000000E+00  0.00000000E+00  0.00000000E+00
  0.00000000E+00  0.00000000E+00  0.00000000E+00
  0.00000000E+00  0.00000000E+00  0.00000000E+00
  0.00000000E+00  0.00000000E+00  0.00000000E+00
  0.00000000E+00  0.00000000E+00  0.00000000E+00
  0.00000000E+00  0.00000000E+00  0.00000000E+00
  0.00000000E+00  0.00000000E+00  0.00000000E+00
  0.00000000E+00  0.00000000E+00  0.00000000E+00
  0.00000000E+00  0.00000000E+00  0.00000000E+00
  0.00000000E+00  0.00000000E+00  0.00000000E+00
  0.00000000E+00  0.00000000E+00  0.00000000E+00
  0.00000000E+00  0.00000000E+00  0.00000000E+00
  0.00000000E+00  0.00000000E+00  0.00000000E+00
  0.00000000E+00  0.00000000E+00  0.00000000E+00
  0.00000000E+00  0.00000000E+00  0.00000000E+00
  0.00000000E+00  0.00000000E+00  0.00000000E+00
  0.00000000E+00  0.00000000E+00  0.00000000E+00
  0.00000000E+00  0.00000000E+00  0.00000000E+00
  0.00000000E+00  0.00000000E+00  0.00000000E+00
  0.00000000E+00  0.00000000E+00  0.00000000E+00
  0.00000000E+00  0.00000000E+00  0.00000000E+00
  0.00000000E+00  0.00000000E+00  0.00000000E+00
  0.00000000E+00  0.00000000E+00  0.00000000E+00
  0.00000000E+00  0.00000000E+00  0.00000000E+00
  0.00000000E+00  0.00000000E+00  0.00000000E+00
  0.00000000E+00  0.00000000E+00  0.00000000E+00
  0.00000000E+00  0.00000000E+00  0.00000000E+00
  0.00000000E+00  0.00000000E+00  0.00000000E+00
  0.00000000E+00  0.00000000E+00  0.00000000E+00
  0.00000000E+00  0.00000000E+00  0.00000000E+00
  0.00000000E+00  0.00000000E+00  0.00000000E+00
  0.00000000E+00  0.00000000E+00  0.00000000E+00
  0.00000000E+00  0.00000000E+00  0.00000000E+00
  0.00000000E+00  0.00000000E+00  0.00000000E+00
  0.00000000E+00  0.00000000E+00  0.00000000E+00
  0.00000000E+00  0.00000000E+00  0.00000000E+00
  0.00000000E+00  0.00000000E+00  0.00000000E+00
  0.00000000E+00  0.00000000E+00  0.00000000E+00
