Au-Pt-COH                               
   1.00000000000000     
     8.8135128021000000    0.0000000000000000    0.0000000000000000
     4.4067569092000003    7.6327256898000000    0.0000000000000000
     0.0000000000000000    0.0000000000000000   26.7549911976187857
   Au   Pt   C    O    H 
    35     1     1     1     1
Selective dynamics
Direct
  0.0000000000000000  0.0000000000000000  0.1973605556437903   F   F   F
  0.3333333429999996  0.0000000000000000  0.1973605556437903   F   F   F
  0.6666666870000029  0.0000000000000000  0.1973605556437903   F   F   F
  0.0000000000000000  0.3333333429999996  0.1973605556437903   F   F   F
  0.3333333129999971  0.3333333429999996  0.1973605556437903   F   F   F
  0.6666666870000029  0.3333333429999996  0.1973605556437903   F   F   F
  0.0000000000000000  0.6666666870000029  0.1973605556437903   F   F   F
  0.3333333429999996  0.6666666870000029  0.1973605556437903   F   F   F
  0.6666666269999979  0.6666666870000029  0.1973605556437903   F   F   F
  0.1111111190000003  0.1111111120000032  0.2870161305224883   F   F   F
  0.4444444180000033  0.1111111120000032  0.2870161305224883   F   F   F
  0.7777777909999983  0.1111111120000032  0.2870161305224883   F   F   F
  0.1111111270000009  0.4444444479999987  0.2870161305224883   F   F   F
  0.4444444780000012  0.4444444479999987  0.2870161305224883   F   F   F
  0.7777777310000005  0.4444444479999987  0.2870161305224883   F   F   F
  0.1111110900000014  0.7777777909999983  0.2870161305224883   F   F   F
  0.4444444479999987  0.7777777909999983  0.2870161305224883   F   F   F
  0.7777778510000033  0.7777777909999983  0.2870161305224883   F   F   F
  0.8888281781493674  0.2223436597012665  0.3765030825433087   F   F   F
  0.2214459347086972  0.2214459197086995  0.3755650761268186   F   F   F
  0.5571081905826034  0.2214459197086995  0.3755650761268186   F   F   F
  0.8880668269912633  0.5559666165043566  0.3762554380044492   F   F   F
  0.2214458897086971  0.5571081905826034  0.3755650761268186   F   F   F
  0.5559666165043566  0.5559666165043566  0.3762554380044492   F   F   F
  0.8888281781493674  0.8888281781493674  0.3765030825433087   F   F   F
  0.2223436897012689  0.8888281781493674  0.3765030825433087   F   F   F
  0.5559665565043588  0.8880668269912633  0.3762554380044492   F   F   F
  0.0000000000000000  0.0000000000000000  0.4671670456893580   F   F   F
  0.3334567551756891  0.0020607503636896  0.4669472886177388   F   F   F
  0.6644825244606167  0.0020607503636896  0.4669472886177388   F   F   F
  0.0020607503636896  0.3334567551756891  0.4669472886177388   F   F   F
  0.6644825244606167  0.3334567551756891  0.4669472886177388   F   F   F
  0.0020607503636896  0.6644825244606167  0.4669472886177388   F   F   F
  0.3334567551756891  0.6644825244606167  0.4669472886177388   F   F   F
  0.6666666269999979  0.6666666870000029  0.4670754877859196   F   F   F
  0.3333333129999971  0.3333333429999996  0.4596588052080008   F   F   F
  0.3333333129999971  0.3333333429999996  0.5267563297363722   T   T   T
  0.3333333129999971  0.3333333429999996  0.5730912382435349   T   T   T
  0.3333333129999971  0.3333333429999996  0.6093351830576168   T   T   T
 
  0.00000000E+00  0.00000000E+00  0.00000000E+00
  0.00000000E+00  0.00000000E+00  0.00000000E+00
  0.00000000E+00  0.00000000E+00  0.00000000E+00
  0.00000000E+00  0.00000000E+00  0.00000000E+00
  0.00000000E+00  0.00000000E+00  0.00000000E+00
  0.00000000E+00  0.00000000E+00  0.00000000E+00
  0.00000000E+00  0.00000000E+00  0.00000000E+00
  0.00000000E+00  0.00000000E+00  0.00000000E+00
  0.00000000E+00  0.00000000E+00  0.00000000E+00
  0.00000000E+00  0.00000000E+00  0.00000000E+00
  0.00000000E+00  0.00000000E+00  0.00000000E+00
  0.00000000E+00  0.00000000E+00  0.00000000E+00
  0.00000000E+00  0.00000000E+00  0.00000000E+00
  0.00000000E+00  0.00000000E+00  0.00000000E+00
  0.00000000E+00  0.00000000E+00  0.00000000E+00
  0.00000000E+00  0.00000000E+00  0.00000000E+00
  0.00000000E+00  0.00000000E+00  0.00000000E+00
  0.00000000E+00  0.00000000E+00  0.00000000E+00
  0.00000000E+00  0.00000000E+00  0.00000000E+00
  0.00000000E+00  0.00000000E+00  0.00000000E+00
  0.00000000E+00  0.00000000E+00  0.00000000E+00
  0.00000000E+00  0.00000000E+00  0.00000000E+00
  0.00000000E+00  0.00000000E+00  0.00000000E+00
  0.00000000E+00  0.00000000E+00  0.00000000E+00
  0.00000000E+00  0.00000000E+00  0.00000000E+00
  0.00000000E+00  0.00000000E+00  0.00000000E+00
  0.00000000E+00  0.00000000E+00  0.00000000E+00
  0.00000000E+00  0.00000000E+00  0.00000000E+00
  0.00000000E+00  0.00000000E+00  0.00000000E+00
  0.00000000E+00  0.00000000E+00  0.00000000E+00
  0.00000000E+00  0.00000000E+00  0.00000000E+00
  0.00000000E+00  0.00000000E+00  0.00000000E+00
  0.00000000E+00  0.00000000E+00  0.00000000E+00
  0.00000000E+00  0.00000000E+00  0.00000000E+00
  0.00000000E+00  0.00000000E+00  0.00000000E+00
  0.00000000E+00  0.00000000E+00  0.00000000E+00
  0.00000000E+00  0.00000000E+00  0.00000000E+00
  0.00000000E+00  0.00000000E+00  0.00000000E+00
  0.00000000E+00  0.00000000E+00  0.00000000E+00
