Au-Ir-O                                 
   1.00000000000000     
     8.8135128021000000    0.0000000000000000    0.0000000000000000
     4.4067569092000003    7.6327256898000000    0.0000000000000000
     0.0000000000000000    0.0000000000000000   22.1962032317999984
   Au   Ir   O 
    35     1     1
Selective dynamics
Direct
  0.0000000000000000  0.0000000000000000  0.2378956379999977   F   F   F
  0.3333333429999996  0.0000000000000000  0.2378956379999977   F   F   F
  0.6666666870000029  0.0000000000000000  0.2378956379999977   F   F   F
  0.0000000000000000  0.3333333429999996  0.2378956379999977   F   F   F
  0.3333333129999971  0.3333333429999996  0.2378956379999977   F   F   F
  0.6666666870000029  0.3333333429999996  0.2378956379999977   F   F   F
  0.0000000000000000  0.6666666870000029  0.2378956379999977   F   F   F
  0.3333333429999996  0.6666666870000029  0.2378956379999977   F   F   F
  0.6666666269999979  0.6666666870000029  0.2378956379999977   F   F   F
  0.1111111190000003  0.1111111120000032  0.3459652069999990   F   F   F
  0.4444444180000033  0.1111111120000032  0.3459652069999990   F   F   F
  0.7777777909999983  0.1111111120000032  0.3459652069999990   F   F   F
  0.1111111270000009  0.4444444479999987  0.3459652069999990   F   F   F
  0.4444444780000012  0.4444444479999987  0.3459652069999990   F   F   F
  0.7777777310000005  0.4444444479999987  0.3459652069999990   F   F   F
  0.1111110900000014  0.7777777909999983  0.3459652069999990   F   F   F
  0.4444444479999987  0.7777777909999983  0.3459652069999990   F   F   F
  0.7777778510000033  0.7777777909999983  0.3459652069999990   F   F   F
  0.8886126423151381  0.2227747313697250  0.4541896089381865   F   F   F
  0.2216648805198602  0.2216648655198625  0.4522474650513999   F   F   F
  0.5566702989602632  0.2216648655198625  0.4522474650513999   F   F   F
  0.8866935878123670  0.5566532360938155  0.4532866117114267   F   F   F
  0.2216648355198600  0.5566702989602632  0.4522474650513999   F   F   F
  0.5566532360938155  0.5566532360938155  0.4532866117114267   F   F   F
  0.8886126423151381  0.8886126423151381  0.4541896089381865   F   F   F
  0.2227747613697275  0.8886126423151381  0.4541896089381865   F   F   F
  0.5566531760938176  0.8866935878123670  0.4532866117114267   F   F   F
  0.0000000000000000  0.0000000000000000  0.5629876631320556   F   F   F
  0.3333141867134657  0.0052536554553768  0.5623971789618381   F   F   F
  0.6614321878311600  0.0052536554553768  0.5623971789618381   F   F   F
  0.0052536554553768  0.3333141867134657  0.5623971789618381   F   F   F
  0.6614321878311600  0.3333141867134657  0.5623971789618381   F   F   F
  0.0052536554553768  0.6614321878311600  0.5623971789618381   F   F   F
  0.3333141867134657  0.6614321878311600  0.5623971789618381   F   F   F
  0.6666666269999979  0.6666666870000029  0.5627860906228861   F   F   F
  0.3333333129999971  0.3333333429999996  0.5512868402538231   F   F   F
  0.3333333129999971  0.3333333429999996  0.6316916230903260   T   T   T
 
  0.00000000E+00  0.00000000E+00  0.00000000E+00
  0.00000000E+00  0.00000000E+00  0.00000000E+00
  0.00000000E+00  0.00000000E+00  0.00000000E+00
  0.00000000E+00  0.00000000E+00  0.00000000E+00
  0.00000000E+00  0.00000000E+00  0.00000000E+00
  0.00000000E+00  0.00000000E+00  0.00000000E+00
  0.00000000E+00  0.00000000E+00  0.00000000E+00
  0.00000000E+00  0.00000000E+00  0.00000000E+00
  0.00000000E+00  0.00000000E+00  0.00000000E+00
  0.00000000E+00  0.00000000E+00  0.00000000E+00
  0.00000000E+00  0.00000000E+00  0.00000000E+00
  0.00000000E+00  0.00000000E+00  0.00000000E+00
  0.00000000E+00  0.00000000E+00  0.00000000E+00
  0.00000000E+00  0.00000000E+00  0.00000000E+00
  0.00000000E+00  0.00000000E+00  0.00000000E+00
  0.00000000E+00  0.00000000E+00  0.00000000E+00
  0.00000000E+00  0.00000000E+00  0.00000000E+00
  0.00000000E+00  0.00000000E+00  0.00000000E+00
  0.00000000E+00  0.00000000E+00  0.00000000E+00
  0.00000000E+00  0.00000000E+00  0.00000000E+00
  0.00000000E+00  0.00000000E+00  0.00000000E+00
  0.00000000E+00  0.00000000E+00  0.00000000E+00
  0.00000000E+00  0.00000000E+00  0.00000000E+00
  0.00000000E+00  0.00000000E+00  0.00000000E+00
  0.00000000E+00  0.00000000E+00  0.00000000E+00
  0.00000000E+00  0.00000000E+00  0.00000000E+00
  0.00000000E+00  0.00000000E+00  0.00000000E+00
  0.00000000E+00  0.00000000E+00  0.00000000E+00
  0.00000000E+00  0.00000000E+00  0.00000000E+00
  0.00000000E+00  0.00000000E+00  0.00000000E+00
  0.00000000E+00  0.00000000E+00  0.00000000E+00
  0.00000000E+00  0.00000000E+00  0.00000000E+00
  0.00000000E+00  0.00000000E+00  0.00000000E+00
  0.00000000E+00  0.00000000E+00  0.00000000E+00
  0.00000000E+00  0.00000000E+00  0.00000000E+00
  0.00000000E+00  0.00000000E+00  0.00000000E+00
  0.00000000E+00  0.00000000E+00  0.00000000E+00
