Cu-Pt-CO2                               
   1.00000000000000     
     7.6967864037000000    0.0000000000000000    0.0000000000000000
     3.8483927580000001    6.6656128092999998    0.0000000000000000
     0.0000000000000000    0.0000000000000000   23.4632997304554536
   Cu   Pt   C    O 
    35     1     1     2
Selective dynamics
Direct
  0.0000000000000000  0.0000000000000000  0.2289345361668111   F   F   F
  0.3333333429999996  0.0000000000000000  0.2289345361668111   F   F   F
  0.6666666870000029  0.0000000000000000  0.2289345361668111   F   F   F
  0.0000000000000000  0.3333333429999996  0.2289345361668111   F   F   F
  0.3333333129999971  0.3333333429999996  0.2289345361668111   F   F   F
  0.6666666870000029  0.3333333429999996  0.2289345361668111   F   F   F
  0.0000000000000000  0.6666666870000029  0.2289345361668111   F   F   F
  0.3333333730000021  0.6666666870000029  0.2289345361668111   F   F   F
  0.6666666269999979  0.6666666870000029  0.2289345361668111   F   F   F
  0.1111111190000003  0.1111111120000032  0.3182144028730534   F   F   F
  0.4444444180000033  0.1111111120000032  0.3182144028730534   F   F   F
  0.7777777909999983  0.1111111120000032  0.3182144028730534   F   F   F
  0.1111111190000003  0.4444444479999987  0.3182144028730534   F   F   F
  0.4444444780000012  0.4444444479999987  0.3182144028730534   F   F   F
  0.7777777310000005  0.4444444479999987  0.3182144028730534   F   F   F
  0.1111111120000032  0.7777777310000005  0.3182144028730534   F   F   F
  0.4444444780000012  0.7777777310000005  0.3182144028730534   F   F   F
  0.7777778510000033  0.7777777310000005  0.3182144028730534   F   F   F
  0.8884720402971382  0.2230559354057178  0.4071409742816101   F   F   F
  0.2208476558408776  0.2208476408408799  0.4061641546277599   F   F   F
  0.5583047483182426  0.2208476408408799  0.4061641546277599   F   F   F
  0.8885171189505883  0.5557414105247034  0.4070545719119067   F   F   F
  0.2208476258408822  0.5583046883182377  0.4061641546277599   F   F   F
  0.5557414705247012  0.5557414105247034  0.4070545719119067   F   F   F
  0.8884720402971382  0.8884720402971382  0.4071409742816101   F   F   F
  0.2230559504057226  0.8884720402971382  0.4071409742816101   F   F   F
  0.5557414105247034  0.8885171189505883  0.4070545719119067   F   F   F
  0.0000000000000000  0.0000000000000000  0.4950689119998088   F   F   F
  0.3330618966758578  0.9971899677733234  0.4962953824087677   F   F   F
  0.6697481655508213  0.9971899677733234  0.4962953824087677   F   F   F
  0.9971899677733234  0.3330618966758578  0.4962953824087677   F   F   F
  0.6697481655508213  0.3330618966758578  0.4962953824087677   F   F   F
  0.9971899677733234  0.6697481655508213  0.4962953824087677   F   F   F
  0.3330619266758674  0.6697481655508213  0.4962953824087677   F   F   F
  0.6666666269999979  0.6666666870000029  0.4950283928162520   F   F   F
  0.3333333129999971  0.3333333429999996  0.4965245730487311   F   F   F
  0.3315768038987841  0.3368463612024328  0.6550634861344733   T   T   T
  0.1786416251160077  0.3369789181998755  0.6551743110790440   T   T   T
  0.4843794256841178  0.3369789181998755  0.6551743110790440   T   T   T
 
  0.00000000E+00  0.00000000E+00  0.00000000E+00
  0.00000000E+00  0.00000000E+00  0.00000000E+00
  0.00000000E+00  0.00000000E+00  0.00000000E+00
  0.00000000E+00  0.00000000E+00  0.00000000E+00
  0.00000000E+00  0.00000000E+00  0.00000000E+00
  0.00000000E+00  0.00000000E+00  0.00000000E+00
  0.00000000E+00  0.00000000E+00  0.00000000E+00
  0.00000000E+00  0.00000000E+00  0.00000000E+00
  0.00000000E+00  0.00000000E+00  0.00000000E+00
  0.00000000E+00  0.00000000E+00  0.00000000E+00
  0.00000000E+00  0.00000000E+00  0.00000000E+00
  0.00000000E+00  0.00000000E+00  0.00000000E+00
  0.00000000E+00  0.00000000E+00  0.00000000E+00
  0.00000000E+00  0.00000000E+00  0.00000000E+00
  0.00000000E+00  0.00000000E+00  0.00000000E+00
  0.00000000E+00  0.00000000E+00  0.00000000E+00
  0.00000000E+00  0.00000000E+00  0.00000000E+00
  0.00000000E+00  0.00000000E+00  0.00000000E+00
  0.00000000E+00  0.00000000E+00  0.00000000E+00
  0.00000000E+00  0.00000000E+00  0.00000000E+00
  0.00000000E+00  0.00000000E+00  0.00000000E+00
  0.00000000E+00  0.00000000E+00  0.00000000E+00
  0.00000000E+00  0.00000000E+00  0.00000000E+00
  0.00000000E+00  0.00000000E+00  0.00000000E+00
  0.00000000E+00  0.00000000E+00  0.00000000E+00
  0.00000000E+00  0.00000000E+00  0.00000000E+00
  0.00000000E+00  0.00000000E+00  0.00000000E+00
  0.00000000E+00  0.00000000E+00  0.00000000E+00
  0.00000000E+00  0.00000000E+00  0.00000000E+00
  0.00000000E+00  0.00000000E+00  0.00000000E+00
  0.00000000E+00  0.00000000E+00  0.00000000E+00
  0.00000000E+00  0.00000000E+00  0.00000000E+00
  0.00000000E+00  0.00000000E+00  0.00000000E+00
  0.00000000E+00  0.00000000E+00  0.00000000E+00
  0.00000000E+00  0.00000000E+00  0.00000000E+00
  0.00000000E+00  0.00000000E+00  0.00000000E+00
  0.00000000E+00  0.00000000E+00  0.00000000E+00
  0.00000000E+00  0.00000000E+00  0.00000000E+00
  0.00000000E+00  0.00000000E+00  0.00000000E+00
