Cu-V-OOH                                
   1.00000000000000     
     7.6967864037000000    0.0000000000000000    0.0000000000000000
     3.8483927580000001    6.6656128092999998    0.0000000000000000
     0.0000000000000000    0.0000000000000000   25.3788956433894519
   Cu   V    O    H 
    35     1     2     1
Selective dynamics
Direct
  0.0000000000000000  0.0000000000000000  0.2116545856136796   F   F   F
  0.3333333429999996  0.0000000000000000  0.2116545856136796   F   F   F
  0.6666666870000029  0.0000000000000000  0.2116545856136796   F   F   F
  0.0000000000000000  0.3333333429999996  0.2116545856136796   F   F   F
  0.3333333129999971  0.3333333429999996  0.2116545856136796   F   F   F
  0.6666666870000029  0.3333333429999996  0.2116545856136796   F   F   F
  0.0000000000000000  0.6666666870000029  0.2116545856136796   F   F   F
  0.3333333730000021  0.6666666870000029  0.2116545856136796   F   F   F
  0.6666666269999979  0.6666666870000029  0.2116545856136796   F   F   F
  0.1111111190000003  0.1111111120000032  0.2941956189927097   F   F   F
  0.4444444180000033  0.1111111120000032  0.2941956189927097   F   F   F
  0.7777777909999983  0.1111111120000032  0.2941956189927097   F   F   F
  0.1111111190000003  0.4444444479999987  0.2941956189927097   F   F   F
  0.4444444780000012  0.4444444479999987  0.2941956189927097   F   F   F
  0.7777777310000005  0.4444444479999987  0.2941956189927097   F   F   F
  0.1111111120000032  0.7777777310000005  0.2941956189927097   F   F   F
  0.4444444780000012  0.7777777310000005  0.2941956189927097   F   F   F
  0.7777778510000033  0.7777777310000005  0.2941956189927097   F   F   F
  0.8889698672365185  0.2220602815269501  0.3762615574145229   F   F   F
  0.2222896547257065  0.2222896397257230  0.3763445994616603   F   F   F
  0.5554207505485635  0.2222896397257230  0.3763445994616603   F   F   F
  0.8884918919018503  0.5557540240490724  0.3767515896901372   F   F   F
  0.2222896247257182  0.5554206905485586  0.3763445994616603   F   F   F
  0.5557540840490702  0.5557540240490724  0.3767515896901372   F   F   F
  0.8889698672365185  0.8889698672365185  0.3762615574145229   F   F   F
  0.2220602965269478  0.8889698672365185  0.3762615574145229   F   F   F
  0.5557540240490724  0.8884918919018503  0.3767515896901372   F   F   F
  0.0000000000000000  0.0000000000000000  0.4586772400317969   F   F   F
  0.3334564484458227  0.0004601115213632  0.4593281970800476   F   F   F
  0.6660834700328166  0.0004601115213632  0.4593281970800476   F   F   F
  0.0004601115213632  0.3334564484458227  0.4593281970800476   F   F   F
  0.6660834700328166  0.3334564484458227  0.4593281970800476   F   F   F
  0.0004601115213632  0.6660834700328166  0.4593281970800476   F   F   F
  0.3334564784458180  0.6660834700328166  0.4593281970800476   F   F   F
  0.6666666269999979  0.6666666870000029  0.4592777233864709   F   F   F
  0.3333333129999971  0.3333333429999996  0.4578697844786674   F   F   F
  0.4092690164389268  0.4211837649117669  0.5095420478553692   T   T   T
  0.8934655928558399  0.2202201283243070  0.5142961620411342   T   T   T
  0.8585051710858806  0.2386997234287378  0.5515134430484778   T   T   T
 
  0.00000000E+00  0.00000000E+00  0.00000000E+00
  0.00000000E+00  0.00000000E+00  0.00000000E+00
  0.00000000E+00  0.00000000E+00  0.00000000E+00
  0.00000000E+00  0.00000000E+00  0.00000000E+00
  0.00000000E+00  0.00000000E+00  0.00000000E+00
  0.00000000E+00  0.00000000E+00  0.00000000E+00
  0.00000000E+00  0.00000000E+00  0.00000000E+00
  0.00000000E+00  0.00000000E+00  0.00000000E+00
  0.00000000E+00  0.00000000E+00  0.00000000E+00
  0.00000000E+00  0.00000000E+00  0.00000000E+00
  0.00000000E+00  0.00000000E+00  0.00000000E+00
  0.00000000E+00  0.00000000E+00  0.00000000E+00
  0.00000000E+00  0.00000000E+00  0.00000000E+00
  0.00000000E+00  0.00000000E+00  0.00000000E+00
  0.00000000E+00  0.00000000E+00  0.00000000E+00
  0.00000000E+00  0.00000000E+00  0.00000000E+00
  0.00000000E+00  0.00000000E+00  0.00000000E+00
  0.00000000E+00  0.00000000E+00  0.00000000E+00
  0.00000000E+00  0.00000000E+00  0.00000000E+00
  0.00000000E+00  0.00000000E+00  0.00000000E+00
  0.00000000E+00  0.00000000E+00  0.00000000E+00
  0.00000000E+00  0.00000000E+00  0.00000000E+00
  0.00000000E+00  0.00000000E+00  0.00000000E+00
  0.00000000E+00  0.00000000E+00  0.00000000E+00
  0.00000000E+00  0.00000000E+00  0.00000000E+00
  0.00000000E+00  0.00000000E+00  0.00000000E+00
  0.00000000E+00  0.00000000E+00  0.00000000E+00
  0.00000000E+00  0.00000000E+00  0.00000000E+00
  0.00000000E+00  0.00000000E+00  0.00000000E+00
  0.00000000E+00  0.00000000E+00  0.00000000E+00
  0.00000000E+00  0.00000000E+00  0.00000000E+00
  0.00000000E+00  0.00000000E+00  0.00000000E+00
  0.00000000E+00  0.00000000E+00  0.00000000E+00
  0.00000000E+00  0.00000000E+00  0.00000000E+00
  0.00000000E+00  0.00000000E+00  0.00000000E+00
  0.00000000E+00  0.00000000E+00  0.00000000E+00
  0.00000000E+00  0.00000000E+00  0.00000000E+00
  0.00000000E+00  0.00000000E+00  0.00000000E+00
  0.00000000E+00  0.00000000E+00  0.00000000E+00
