Au-Ir-O2                                
   1.00000000000000     
     8.8135128021000000    0.0000000000000000    0.0000000000000000
     4.4067569092000003    7.6327256898000000    0.0000000000000000
     0.0000000000000000    0.0000000000000000   24.3134088421207828
   Au   Ir   O 
    35     1     2
Selective dynamics
Direct
  0.0000000000000000  0.0000000000000000  0.2171797448599193   F   F   F
  0.3333333429999996  0.0000000000000000  0.2171797448599193   F   F   F
  0.6666666870000029  0.0000000000000000  0.2171797448599193   F   F   F
  0.0000000000000000  0.3333333429999996  0.2171797448599193   F   F   F
  0.3333333129999971  0.3333333429999996  0.2171797448599193   F   F   F
  0.6666666870000029  0.3333333429999996  0.2171797448599193   F   F   F
  0.0000000000000000  0.6666666870000029  0.2171797448599193   F   F   F
  0.3333333429999996  0.6666666870000029  0.2171797448599193   F   F   F
  0.6666666269999979  0.6666666870000029  0.2171797448599193   F   F   F
  0.1111111190000003  0.1111111120000032  0.3158386426012072   F   F   F
  0.4444444180000033  0.1111111120000032  0.3158386426012072   F   F   F
  0.7777777909999983  0.1111111120000032  0.3158386426012072   F   F   F
  0.1111111270000009  0.4444444479999987  0.3158386426012072   F   F   F
  0.4444444780000012  0.4444444479999987  0.3158386426012072   F   F   F
  0.7777777310000005  0.4444444479999987  0.3158386426012072   F   F   F
  0.1111110900000014  0.7777777909999983  0.3158386426012072   F   F   F
  0.4444444479999987  0.7777777909999983  0.3158386426012072   F   F   F
  0.7777778510000033  0.7777777909999983  0.3158386426012072   F   F   F
  0.8886126423151381  0.2227747313697321  0.4146388904668470   F   F   F
  0.2216648805198602  0.2216648655198625  0.4128658679879109   F   F   F
  0.5566702989602632  0.2216648655198625  0.4128658679879109   F   F   F
  0.8866935878123670  0.5566532360938226  0.4138145260145834   F   F   F
  0.2216648355198600  0.5566702989602632  0.4128658679879109   F   F   F
  0.5566532360938226  0.5566532360938226  0.4138145260145834   F   F   F
  0.8886126423151381  0.8886126423151381  0.4146388904668470   F   F   F
  0.2227747613697275  0.8886126423151381  0.4146388904668470   F   F   F
  0.5566531760938176  0.8866935878123670  0.4138145260145834   F   F   F
  0.0000000000000000  0.0000000000000000  0.5139628370920519   F   F   F
  0.3333141867134728  0.0052536554553768  0.5134237721368891   F   F   F
  0.6614321878311600  0.0052536554553768  0.5134237721368891   F   F   F
  0.0052536554553768  0.3333141867134728  0.5134237721368891   F   F   F
  0.6614321878311600  0.3333141867134728  0.5134237721368891   F   F   F
  0.0052536554553768  0.6614321878311600  0.5134237721368891   F   F   F
  0.3333141867134728  0.6614321878311600  0.5134237721368891   F   F   F
  0.6666666269999979  0.6666666870000029  0.5137788174669708   F   F   F
  0.3333333129999971  0.3333333429999996  0.5032809189673202   F   F   F
  0.2560112610078278  0.3314157368822137  0.5840304107860135   T   T   T
  0.4125729711099595  0.3314157368822137  0.5840304107860135   T   T   T
 
  0.00000000E+00  0.00000000E+00  0.00000000E+00
  0.00000000E+00  0.00000000E+00  0.00000000E+00
  0.00000000E+00  0.00000000E+00  0.00000000E+00
  0.00000000E+00  0.00000000E+00  0.00000000E+00
  0.00000000E+00  0.00000000E+00  0.00000000E+00
  0.00000000E+00  0.00000000E+00  0.00000000E+00
  0.00000000E+00  0.00000000E+00  0.00000000E+00
  0.00000000E+00  0.00000000E+00  0.00000000E+00
  0.00000000E+00  0.00000000E+00  0.00000000E+00
  0.00000000E+00  0.00000000E+00  0.00000000E+00
  0.00000000E+00  0.00000000E+00  0.00000000E+00
  0.00000000E+00  0.00000000E+00  0.00000000E+00
  0.00000000E+00  0.00000000E+00  0.00000000E+00
  0.00000000E+00  0.00000000E+00  0.00000000E+00
  0.00000000E+00  0.00000000E+00  0.00000000E+00
  0.00000000E+00  0.00000000E+00  0.00000000E+00
  0.00000000E+00  0.00000000E+00  0.00000000E+00
  0.00000000E+00  0.00000000E+00  0.00000000E+00
  0.00000000E+00  0.00000000E+00  0.00000000E+00
  0.00000000E+00  0.00000000E+00  0.00000000E+00
  0.00000000E+00  0.00000000E+00  0.00000000E+00
  0.00000000E+00  0.00000000E+00  0.00000000E+00
  0.00000000E+00  0.00000000E+00  0.00000000E+00
  0.00000000E+00  0.00000000E+00  0.00000000E+00
  0.00000000E+00  0.00000000E+00  0.00000000E+00
  0.00000000E+00  0.00000000E+00  0.00000000E+00
  0.00000000E+00  0.00000000E+00  0.00000000E+00
  0.00000000E+00  0.00000000E+00  0.00000000E+00
  0.00000000E+00  0.00000000E+00  0.00000000E+00
  0.00000000E+00  0.00000000E+00  0.00000000E+00
  0.00000000E+00  0.00000000E+00  0.00000000E+00
  0.00000000E+00  0.00000000E+00  0.00000000E+00
  0.00000000E+00  0.00000000E+00  0.00000000E+00
  0.00000000E+00  0.00000000E+00  0.00000000E+00
  0.00000000E+00  0.00000000E+00  0.00000000E+00
  0.00000000E+00  0.00000000E+00  0.00000000E+00
  0.00000000E+00  0.00000000E+00  0.00000000E+00
  0.00000000E+00  0.00000000E+00  0.00000000E+00
