Cu-V-H2O                                
   1.00000000000000     
     7.6967864037000000    0.0000000000000000    0.0000000000000000
     3.8483927580000001    6.6656128092999998    0.0000000000000000
     0.0000000000000000    0.0000000000000000   24.2721068936942466
   Cu   V    H    O 
    35     1     2     1
Selective dynamics
Direct
  0.0000000000000000  0.0000000000000000  0.2213058662052134   F   F   F
  0.3333333429999996  0.0000000000000000  0.2213058662052134   F   F   F
  0.6666666870000029  0.0000000000000000  0.2213058662052134   F   F   F
  0.0000000000000000  0.3333333429999996  0.2213058662052134   F   F   F
  0.3333333129999971  0.3333333429999996  0.2213058662052134   F   F   F
  0.6666666870000029  0.3333333429999996  0.2213058662052134   F   F   F
  0.0000000000000000  0.6666666870000029  0.2213058662052134   F   F   F
  0.3333333730000021  0.6666666870000029  0.2213058662052134   F   F   F
  0.6666666269999979  0.6666666870000029  0.2213058662052134   F   F   F
  0.1111111190000003  0.1111111120000032  0.3076107049898482   F   F   F
  0.4444444180000033  0.1111111120000032  0.3076107049898482   F   F   F
  0.7777777909999983  0.1111111120000032  0.3076107049898482   F   F   F
  0.1111111190000003  0.4444444479999987  0.3076107049898482   F   F   F
  0.4444444780000012  0.4444444479999987  0.3076107049898482   F   F   F
  0.7777777310000005  0.4444444479999987  0.3076107049898482   F   F   F
  0.1111111120000032  0.7777777310000005  0.3076107049898482   F   F   F
  0.4444444780000012  0.7777777310000005  0.3076107049898482   F   F   F
  0.7777778510000033  0.7777777310000005  0.3076107049898482   F   F   F
  0.8889698672365185  0.2220602815269501  0.3934187848654815   F   F   F
  0.2222896547257065  0.2222896397257230  0.3935056135638604   F   F   F
  0.5554207505485635  0.2222896397257230  0.3935056135638604   F   F   F
  0.8884918919018503  0.5557540240490724  0.3939311622227279   F   F   F
  0.2222896247257182  0.5554206905485586  0.3935056135638604   F   F   F
  0.5557540840490702  0.5557540240490724  0.3939311622227279   F   F   F
  0.8889698672365185  0.8889698672365185  0.3934187848654815   F   F   F
  0.2220602965269478  0.8889698672365185  0.3934187848654815   F   F   F
  0.5557540240490724  0.8884918919018503  0.3939311622227279   F   F   F
  0.0000000000000000  0.0000000000000000  0.4795925569934383   F   F   F
  0.3334564484458227  0.0004601115213632  0.4802731971648200   F   F   F
  0.6660834700328166  0.0004601115213632  0.4802731971648200   F   F   F
  0.0004601115213632  0.3334564484458227  0.4802731971648200   F   F   F
  0.6660834700328166  0.3334564484458227  0.4802731971648200   F   F   F
  0.0004601115213632  0.6660834700328166  0.4802731971648200   F   F   F
  0.3334564784458180  0.6660834700328166  0.4802731971648200   F   F   F
  0.6666666269999979  0.6666666870000029  0.4802204219109996   F   F   F
  0.3333333129999971  0.3333333429999996  0.4787482821099616   F   F   F
  0.2726343832467393  0.2495875205755880  0.5776888899131762   T   T   T
  0.4774838846832168  0.2486151105101442  0.5775949482541520   T   T   T
  0.3347709273749331  0.3301667914146336  0.5682053708629056   T   T   T
 
  0.00000000E+00  0.00000000E+00  0.00000000E+00
  0.00000000E+00  0.00000000E+00  0.00000000E+00
  0.00000000E+00  0.00000000E+00  0.00000000E+00
  0.00000000E+00  0.00000000E+00  0.00000000E+00
  0.00000000E+00  0.00000000E+00  0.00000000E+00
  0.00000000E+00  0.00000000E+00  0.00000000E+00
  0.00000000E+00  0.00000000E+00  0.00000000E+00
  0.00000000E+00  0.00000000E+00  0.00000000E+00
  0.00000000E+00  0.00000000E+00  0.00000000E+00
  0.00000000E+00  0.00000000E+00  0.00000000E+00
  0.00000000E+00  0.00000000E+00  0.00000000E+00
  0.00000000E+00  0.00000000E+00  0.00000000E+00
  0.00000000E+00  0.00000000E+00  0.00000000E+00
  0.00000000E+00  0.00000000E+00  0.00000000E+00
  0.00000000E+00  0.00000000E+00  0.00000000E+00
  0.00000000E+00  0.00000000E+00  0.00000000E+00
  0.00000000E+00  0.00000000E+00  0.00000000E+00
  0.00000000E+00  0.00000000E+00  0.00000000E+00
  0.00000000E+00  0.00000000E+00  0.00000000E+00
  0.00000000E+00  0.00000000E+00  0.00000000E+00
  0.00000000E+00  0.00000000E+00  0.00000000E+00
  0.00000000E+00  0.00000000E+00  0.00000000E+00
  0.00000000E+00  0.00000000E+00  0.00000000E+00
  0.00000000E+00  0.00000000E+00  0.00000000E+00
  0.00000000E+00  0.00000000E+00  0.00000000E+00
  0.00000000E+00  0.00000000E+00  0.00000000E+00
  0.00000000E+00  0.00000000E+00  0.00000000E+00
  0.00000000E+00  0.00000000E+00  0.00000000E+00
  0.00000000E+00  0.00000000E+00  0.00000000E+00
  0.00000000E+00  0.00000000E+00  0.00000000E+00
  0.00000000E+00  0.00000000E+00  0.00000000E+00
  0.00000000E+00  0.00000000E+00  0.00000000E+00
  0.00000000E+00  0.00000000E+00  0.00000000E+00
  0.00000000E+00  0.00000000E+00  0.00000000E+00
  0.00000000E+00  0.00000000E+00  0.00000000E+00
  0.00000000E+00  0.00000000E+00  0.00000000E+00
  0.00000000E+00  0.00000000E+00  0.00000000E+00
  0.00000000E+00  0.00000000E+00  0.00000000E+00
  0.00000000E+00  0.00000000E+00  0.00000000E+00
