Au-Zr-CO2                               
   1.00000000000000     
     8.8135128021000000    0.0000000000000000    0.0000000000000000
     4.4067569092000003    7.6327256898000000    0.0000000000000000
     0.0000000000000000    0.0000000000000000   26.8107562534495365
   Au   Zr   C    O 
    35     1     1     2
Selective dynamics
Direct
  0.0000000000000000  0.0000000000000000  0.1969500553841073   F   F   F
  0.3333333429999996  0.0000000000000000  0.1969500553841073   F   F   F
  0.6666666870000029  0.0000000000000000  0.1969500553841073   F   F   F
  0.0000000000000000  0.3333333429999996  0.1969500553841073   F   F   F
  0.3333333129999971  0.3333333429999996  0.1969500553841073   F   F   F
  0.6666666870000029  0.3333333429999996  0.1969500553841073   F   F   F
  0.0000000000000000  0.6666666870000029  0.1969500553841073   F   F   F
  0.3333333429999996  0.6666666870000029  0.1969500553841073   F   F   F
  0.6666666269999979  0.6666666870000029  0.1969500553841073   F   F   F
  0.1111111190000003  0.1111111120000032  0.2864191510717120   F   F   F
  0.4444444180000033  0.1111111120000032  0.2864191510717120   F   F   F
  0.7777777909999983  0.1111111120000032  0.2864191510717120   F   F   F
  0.1111111270000009  0.4444444479999987  0.2864191510717120   F   F   F
  0.4444444780000012  0.4444444479999987  0.2864191510717120   F   F   F
  0.7777777310000005  0.4444444479999987  0.2864191510717120   F   F   F
  0.1111110900000014  0.7777777909999983  0.2864191510717120   F   F   F
  0.4444444479999987  0.7777777909999983  0.2864191510717120   F   F   F
  0.7777778510000033  0.7777777909999983  0.2864191510717120   F   F   F
  0.8889184086334012  0.2221631987331776  0.3756879439297265   F   F   F
  0.2227848346193824  0.2227848196193776  0.3753493845593496   F   F   F
  0.5544303907612331  0.2227848196193776  0.3753493845593496   F   F   F
  0.8878709338258588  0.5560645630870624  0.3756558530825487   F   F   F
  0.2227847896193680  0.5544303907612331  0.3753493845593496   F   F   F
  0.5560645630870624  0.5560645630870624  0.3756558530825487   F   F   F
  0.8889184086334012  0.8889184086334012  0.3756879439297265   F   F   F
  0.2221632287331801  0.8889184086334012  0.3756879439297265   F   F   F
  0.5560645030870575  0.8878709338258588  0.3756558530825487   F   F   F
  0.0000000000000000  0.0000000000000000  0.4661777180795426   F   F   F
  0.3335040881292599  0.0059414237387188  0.4684664160692407   F   F   F
  0.6605545181320309  0.0059414237387188  0.4684664160692407   F   F   F
  0.0059414237387188  0.3335040881292599  0.4684664160692407   F   F   F
  0.6605545181320309  0.3335040881292599  0.4684664160692407   F   F   F
  0.0059414237387188  0.6605545181320309  0.4684664160692407   F   F   F
  0.3335040881292599  0.6605545181320309  0.4684664160692407   F   F   F
  0.6666666269999979  0.6666666870000029  0.4664781733537424   F   F   F
  0.3333333129999971  0.3333333429999996  0.4615374639555512   F   F   F
  0.2469274164889646  0.3207534184528605  0.5868254627022879   T   T   T
  0.1691871375326255  0.3116378542088967  0.6208335766573525   T   T   T
  0.3294711854873970  0.3308315317121532  0.5534094141458226   T   T   T
 
  0.00000000E+00  0.00000000E+00  0.00000000E+00
  0.00000000E+00  0.00000000E+00  0.00000000E+00
  0.00000000E+00  0.00000000E+00  0.00000000E+00
  0.00000000E+00  0.00000000E+00  0.00000000E+00
  0.00000000E+00  0.00000000E+00  0.00000000E+00
  0.00000000E+00  0.00000000E+00  0.00000000E+00
  0.00000000E+00  0.00000000E+00  0.00000000E+00
  0.00000000E+00  0.00000000E+00  0.00000000E+00
  0.00000000E+00  0.00000000E+00  0.00000000E+00
  0.00000000E+00  0.00000000E+00  0.00000000E+00
  0.00000000E+00  0.00000000E+00  0.00000000E+00
  0.00000000E+00  0.00000000E+00  0.00000000E+00
  0.00000000E+00  0.00000000E+00  0.00000000E+00
  0.00000000E+00  0.00000000E+00  0.00000000E+00
  0.00000000E+00  0.00000000E+00  0.00000000E+00
  0.00000000E+00  0.00000000E+00  0.00000000E+00
  0.00000000E+00  0.00000000E+00  0.00000000E+00
  0.00000000E+00  0.00000000E+00  0.00000000E+00
  0.00000000E+00  0.00000000E+00  0.00000000E+00
  0.00000000E+00  0.00000000E+00  0.00000000E+00
  0.00000000E+00  0.00000000E+00  0.00000000E+00
  0.00000000E+00  0.00000000E+00  0.00000000E+00
  0.00000000E+00  0.00000000E+00  0.00000000E+00
  0.00000000E+00  0.00000000E+00  0.00000000E+00
  0.00000000E+00  0.00000000E+00  0.00000000E+00
  0.00000000E+00  0.00000000E+00  0.00000000E+00
  0.00000000E+00  0.00000000E+00  0.00000000E+00
  0.00000000E+00  0.00000000E+00  0.00000000E+00
  0.00000000E+00  0.00000000E+00  0.00000000E+00
  0.00000000E+00  0.00000000E+00  0.00000000E+00
  0.00000000E+00  0.00000000E+00  0.00000000E+00
  0.00000000E+00  0.00000000E+00  0.00000000E+00
  0.00000000E+00  0.00000000E+00  0.00000000E+00
  0.00000000E+00  0.00000000E+00  0.00000000E+00
  0.00000000E+00  0.00000000E+00  0.00000000E+00
  0.00000000E+00  0.00000000E+00  0.00000000E+00
  0.00000000E+00  0.00000000E+00  0.00000000E+00
  0.00000000E+00  0.00000000E+00  0.00000000E+00
  0.00000000E+00  0.00000000E+00  0.00000000E+00
