Ag-Rh-H2O                               
   1.00000000000000     
     8.7913665770999998    0.0000000000000000    0.0000000000000000
     4.3956832885999999    7.6135467898000000    0.0000000000000000
     0.0000000000000000    0.0000000000000000   24.9519635624615859
   Ag   Rh   H    O 
    35     1     2     1
Selective dynamics
Direct
  0.0000000000000000  0.0000000000000000  0.2116942872471981   F   F   F
  0.3333333129999971  0.0000000000000000  0.2116942872471981   F   F   F
  0.6666666269999979  0.0000000000000000  0.2116942872471981   F   F   F
  0.0000000000000000  0.3333333429999996  0.2116942872471981   F   F   F
  0.3333333129999971  0.3333333429999996  0.2116942872471981   F   F   F
  0.6666666870000029  0.3333333429999996  0.2116942872471981   F   F   F
  0.0000000000000000  0.6666666870000029  0.2116942872471981   F   F   F
  0.3333333129999971  0.6666666870000029  0.2116942872471981   F   F   F
  0.6666666269999979  0.6666666870000029  0.2116942872471981   F   F   F
  0.1111111040000026  0.1111111120000032  0.3075868288647499   F   F   F
  0.4444444479999987  0.1111111120000032  0.3075868288647499   F   F   F
  0.7777777909999983  0.1111111120000032  0.3075868288647499   F   F   F
  0.1111110969999984  0.4444444479999987  0.3075868288647499   F   F   F
  0.4444444180000033  0.4444444479999987  0.3075868288647499   F   F   F
  0.7777777909999983  0.4444444479999987  0.3075868288647499   F   F   F
  0.1111111040000026  0.7777777909999983  0.3075868288647499   F   F   F
  0.4444444479999987  0.7777777909999983  0.3075868288647499   F   F   F
  0.7777777909999983  0.7777777909999983  0.3075868288647499   F   F   F
  0.8886096635774408  0.2227806888451127  0.4031946795950674   F   F   F
  0.2224307260220826  0.2224307410220803  0.4020686829644191   F   F   F
  0.5551384879558370  0.2224307410220803  0.4020686829644191   F   F   F
  0.8887443343543424  0.5556278628228171  0.4028555365775475   F   F   F
  0.2224307410220803  0.5551385479558419  0.4020686829644191   F   F   F
  0.5556278628228171  0.5556278628228171  0.4028555365775475   F   F   F
  0.8886096635774408  0.8886096635774408  0.4031946795950674   F   F   F
  0.2227806588451102  0.8886096635774408  0.4031946795950674   F   F   F
  0.5556278028228334  0.8887443343543424  0.4028555365775475   F   F   F
  0.0000000000000000  0.0000000000000000  0.4978327462496992   F   F   F
  0.3331444217542412  0.0050932852284902  0.4980980911041186   F   F   F
  0.6617622330172566  0.0050932852284902  0.4980980911041186   F   F   F
  0.0050932852284902  0.3331444517542366  0.4980980911041186   F   F   F
  0.6617622930172686  0.3331444517542366  0.4980980911041186   F   F   F
  0.0050932852284902  0.6617622930172686  0.4980980911041186   F   F   F
  0.3331444217542412  0.6617622930172686  0.4980980911041186   F   F   F
  0.6666666269999979  0.6666666870000029  0.4974810357922621   F   F   F
  0.3333333129999971  0.3333333429999996  0.4904163797611076   F   F   F
  0.2437001838090254  0.3334508673617265  0.6096286415673546   T   T   T
  0.4229536286164830  0.3333739295207181  0.6096360459029171   T   T   T
  0.3334094237094973  0.3332702402422569  0.5868428127399454   T   T   T
 
  0.00000000E+00  0.00000000E+00  0.00000000E+00
  0.00000000E+00  0.00000000E+00  0.00000000E+00
  0.00000000E+00  0.00000000E+00  0.00000000E+00
  0.00000000E+00  0.00000000E+00  0.00000000E+00
  0.00000000E+00  0.00000000E+00  0.00000000E+00
  0.00000000E+00  0.00000000E+00  0.00000000E+00
  0.00000000E+00  0.00000000E+00  0.00000000E+00
  0.00000000E+00  0.00000000E+00  0.00000000E+00
  0.00000000E+00  0.00000000E+00  0.00000000E+00
  0.00000000E+00  0.00000000E+00  0.00000000E+00
  0.00000000E+00  0.00000000E+00  0.00000000E+00
  0.00000000E+00  0.00000000E+00  0.00000000E+00
  0.00000000E+00  0.00000000E+00  0.00000000E+00
  0.00000000E+00  0.00000000E+00  0.00000000E+00
  0.00000000E+00  0.00000000E+00  0.00000000E+00
  0.00000000E+00  0.00000000E+00  0.00000000E+00
  0.00000000E+00  0.00000000E+00  0.00000000E+00
  0.00000000E+00  0.00000000E+00  0.00000000E+00
  0.00000000E+00  0.00000000E+00  0.00000000E+00
  0.00000000E+00  0.00000000E+00  0.00000000E+00
  0.00000000E+00  0.00000000E+00  0.00000000E+00
  0.00000000E+00  0.00000000E+00  0.00000000E+00
  0.00000000E+00  0.00000000E+00  0.00000000E+00
  0.00000000E+00  0.00000000E+00  0.00000000E+00
  0.00000000E+00  0.00000000E+00  0.00000000E+00
  0.00000000E+00  0.00000000E+00  0.00000000E+00
  0.00000000E+00  0.00000000E+00  0.00000000E+00
  0.00000000E+00  0.00000000E+00  0.00000000E+00
  0.00000000E+00  0.00000000E+00  0.00000000E+00
  0.00000000E+00  0.00000000E+00  0.00000000E+00
  0.00000000E+00  0.00000000E+00  0.00000000E+00
  0.00000000E+00  0.00000000E+00  0.00000000E+00
  0.00000000E+00  0.00000000E+00  0.00000000E+00
  0.00000000E+00  0.00000000E+00  0.00000000E+00
  0.00000000E+00  0.00000000E+00  0.00000000E+00
  0.00000000E+00  0.00000000E+00  0.00000000E+00
  0.00000000E+00  0.00000000E+00  0.00000000E+00
  0.00000000E+00  0.00000000E+00  0.00000000E+00
  0.00000000E+00  0.00000000E+00  0.00000000E+00
