Au-Fe-CO                                
   1.00000000000000     
     8.8135128021000000    0.0000000000000000    0.0000000000000000
     4.4067569092000003    7.6327256898000000    0.0000000000000000
     0.0000000000000000    0.0000000000000000   22.1962032317999984
   Au   Fe   C    O 
    35     1     1     1
Selective dynamics
Direct
  0.0000000000000000  0.0000000000000000  0.2378956379999977   F   F   F
  0.3333333429999996  0.0000000000000000  0.2378956379999977   F   F   F
  0.6666666870000029  0.0000000000000000  0.2378956379999977   F   F   F
  0.0000000000000000  0.3333333429999996  0.2378956379999977   F   F   F
  0.3333333129999971  0.3333333429999996  0.2378956379999977   F   F   F
  0.6666666870000029  0.3333333429999996  0.2378956379999977   F   F   F
  0.0000000000000000  0.6666666870000029  0.2378956379999977   F   F   F
  0.3333333429999996  0.6666666870000029  0.2378956379999977   F   F   F
  0.6666666269999979  0.6666666870000029  0.2378956379999977   F   F   F
  0.1111111190000003  0.1111111120000032  0.3459652069999990   F   F   F
  0.4444444180000033  0.1111111120000032  0.3459652069999990   F   F   F
  0.7777777909999983  0.1111111120000032  0.3459652069999990   F   F   F
  0.1111111270000009  0.4444444479999987  0.3459652069999990   F   F   F
  0.4444444780000012  0.4444444479999987  0.3459652069999990   F   F   F
  0.7777777310000005  0.4444444479999987  0.3459652069999990   F   F   F
  0.1111110900000014  0.7777777909999983  0.3459652069999990   F   F   F
  0.4444444479999987  0.7777777909999983  0.3459652069999990   F   F   F
  0.7777778510000033  0.7777777909999983  0.3459652069999990   F   F   F
  0.8888977238053712  0.2222045683892588  0.4539151940339963   F   F   F
  0.2233416758201230  0.2233416608201253  0.4528108306366931   F   F   F
  0.5533167083597448  0.2233416608201253  0.4528108306366931   F   F   F
  0.8867027054939101  0.5566486772530439  0.4532831416264074   F   F   F
  0.2233416308201228  0.5533167083597448  0.4528108306366931   F   F   F
  0.5566486772530439  0.5566486772530439  0.4532831416264074   F   F   F
  0.8888977238053712  0.8888977238053712  0.4539151940339963   F   F   F
  0.2222045983892613  0.8888977238053712  0.4539151940339963   F   F   F
  0.5566486172530460  0.8867027054939101  0.4532831416264074   F   F   F
  0.0000000000000000  0.0000000000000000  0.5625727699636940   F   F   F
  0.3334090100058518  0.0097494303455079  0.5617720888682740   F   F   F
  0.6568415896486357  0.0097494303455079  0.5617720888682740   F   F   F
  0.0097494303455079  0.3334090100058518  0.5617720888682740   F   F   F
  0.6568415896486428  0.3334090100058518  0.5617720888682740   F   F   F
  0.0097494303455079  0.6568415896486357  0.5617720888682740   F   F   F
  0.3334090100058518  0.6568415896486357  0.5617720888682740   F   F   F
  0.6666666269999979  0.6666666870000029  0.5627907804099905   F   F   F
  0.3333333129999971  0.3333333429999996  0.5478624108635728   F   F   F
  0.3333333129999971  0.3333333429999996  0.6270845911881150   T   T   T
  0.3333333129999971  0.3333333429999996  0.6797959288038684   T   T   T
 
  0.00000000E+00  0.00000000E+00  0.00000000E+00
  0.00000000E+00  0.00000000E+00  0.00000000E+00
  0.00000000E+00  0.00000000E+00  0.00000000E+00
  0.00000000E+00  0.00000000E+00  0.00000000E+00
  0.00000000E+00  0.00000000E+00  0.00000000E+00
  0.00000000E+00  0.00000000E+00  0.00000000E+00
  0.00000000E+00  0.00000000E+00  0.00000000E+00
  0.00000000E+00  0.00000000E+00  0.00000000E+00
  0.00000000E+00  0.00000000E+00  0.00000000E+00
  0.00000000E+00  0.00000000E+00  0.00000000E+00
  0.00000000E+00  0.00000000E+00  0.00000000E+00
  0.00000000E+00  0.00000000E+00  0.00000000E+00
  0.00000000E+00  0.00000000E+00  0.00000000E+00
  0.00000000E+00  0.00000000E+00  0.00000000E+00
  0.00000000E+00  0.00000000E+00  0.00000000E+00
  0.00000000E+00  0.00000000E+00  0.00000000E+00
  0.00000000E+00  0.00000000E+00  0.00000000E+00
  0.00000000E+00  0.00000000E+00  0.00000000E+00
  0.00000000E+00  0.00000000E+00  0.00000000E+00
  0.00000000E+00  0.00000000E+00  0.00000000E+00
  0.00000000E+00  0.00000000E+00  0.00000000E+00
  0.00000000E+00  0.00000000E+00  0.00000000E+00
  0.00000000E+00  0.00000000E+00  0.00000000E+00
  0.00000000E+00  0.00000000E+00  0.00000000E+00
  0.00000000E+00  0.00000000E+00  0.00000000E+00
  0.00000000E+00  0.00000000E+00  0.00000000E+00
  0.00000000E+00  0.00000000E+00  0.00000000E+00
  0.00000000E+00  0.00000000E+00  0.00000000E+00
  0.00000000E+00  0.00000000E+00  0.00000000E+00
  0.00000000E+00  0.00000000E+00  0.00000000E+00
  0.00000000E+00  0.00000000E+00  0.00000000E+00
  0.00000000E+00  0.00000000E+00  0.00000000E+00
  0.00000000E+00  0.00000000E+00  0.00000000E+00
  0.00000000E+00  0.00000000E+00  0.00000000E+00
  0.00000000E+00  0.00000000E+00  0.00000000E+00
  0.00000000E+00  0.00000000E+00  0.00000000E+00
  0.00000000E+00  0.00000000E+00  0.00000000E+00
  0.00000000E+00  0.00000000E+00  0.00000000E+00
