Ag-Hf-COH                               
   1.00000000000000     
     8.7913665770999998    0.0000000000000000    0.0000000000000000
     4.3956832885999999    7.6135467898000000    0.0000000000000000
     0.0000000000000000    0.0000000000000000   26.5797773967759703
   Ag   Hf   C    O    H 
    35     1     1     1     1
Selective dynamics
Direct
  0.0000000000000000  0.0000000000000000  0.1987295853882500   F   F   F
  0.3333333129999971  0.0000000000000000  0.1987295853882500   F   F   F
  0.6666666269999979  0.0000000000000000  0.1987295853882500   F   F   F
  0.0000000000000000  0.3333333429999996  0.1987295853882500   F   F   F
  0.3333333129999971  0.3333333429999996  0.1987295853882500   F   F   F
  0.6666666870000029  0.3333333429999996  0.1987295853882500   F   F   F
  0.0000000000000000  0.6666666870000029  0.1987295853882500   F   F   F
  0.3333333129999971  0.6666666870000029  0.1987295853882500   F   F   F
  0.6666666269999979  0.6666666870000029  0.1987295853882500   F   F   F
  0.1111111040000026  0.1111111120000032  0.2887494214702215   F   F   F
  0.4444444479999987  0.1111111120000032  0.2887494214702215   F   F   F
  0.7777777909999983  0.1111111120000032  0.2887494214702215   F   F   F
  0.1111110969999984  0.4444444479999987  0.2887494214702215   F   F   F
  0.4444444180000033  0.4444444479999987  0.2887494214702215   F   F   F
  0.7777777909999983  0.4444444479999987  0.2887494214702215   F   F   F
  0.1111111040000026  0.7777777909999983  0.2887494214702215   F   F   F
  0.4444444479999987  0.7777777909999983  0.2887494214702215   F   F   F
  0.7777777909999983  0.7777777909999983  0.2887494214702215   F   F   F
  0.8888970300673904  0.2222059558652134  0.3784181765122625   F   F   F
  0.2218945038176301  0.2218945188176278  0.3774695320824719   F   F   F
  0.5562109323647420  0.2218945188176278  0.3774695320824719   F   F   F
  0.8885802802273730  0.5557098898863089  0.3787750143551705   F   F   F
  0.2218945188176278  0.5562109923647398  0.3774695320824719   F   F   F
  0.5557098898863089  0.5557098898863089  0.3787750143551705   F   F   F
  0.8888970300673904  0.8888970300673904  0.3784181765122625   F   F   F
  0.2222059258652109  0.8888970300673904  0.3784181765122625   F   F   F
  0.5557098298863110  0.8885802802273730  0.3787750143551705   F   F   F
  0.0000000000000000  0.0000000000000000  0.4686706427026408   F   F   F
  0.3334280191484211  0.0027242726642527  0.4701056409220215   F   F   F
  0.6638476481873212  0.0027242726642527  0.4701056409220215   F   F   F
  0.0027242726642527  0.3334280491484165  0.4701056409220215   F   F   F
  0.6638477081873333  0.3334280491484165  0.4701056409220215   F   F   F
  0.0027242726642527  0.6638477081873333  0.4701056409220215   F   F   F
  0.3334280191484211  0.6638477081873333  0.4701056409220215   F   F   F
  0.6666666269999979  0.6666666870000029  0.4694719063366293   F   F   F
  0.3333333129999971  0.3333333429999996  0.4640381623027992   F   F   F
  0.3333333129999971  0.3333333429999996  0.5402497613893260   T   T   T
  0.3333333129999971  0.3333333429999996  0.5880958155043077   T   T   T
  0.3333333129999971  0.3333333429999996  0.6240558036674125   T   T   T
 
  0.00000000E+00  0.00000000E+00  0.00000000E+00
  0.00000000E+00  0.00000000E+00  0.00000000E+00
  0.00000000E+00  0.00000000E+00  0.00000000E+00
  0.00000000E+00  0.00000000E+00  0.00000000E+00
  0.00000000E+00  0.00000000E+00  0.00000000E+00
  0.00000000E+00  0.00000000E+00  0.00000000E+00
  0.00000000E+00  0.00000000E+00  0.00000000E+00
  0.00000000E+00  0.00000000E+00  0.00000000E+00
  0.00000000E+00  0.00000000E+00  0.00000000E+00
  0.00000000E+00  0.00000000E+00  0.00000000E+00
  0.00000000E+00  0.00000000E+00  0.00000000E+00
  0.00000000E+00  0.00000000E+00  0.00000000E+00
  0.00000000E+00  0.00000000E+00  0.00000000E+00
  0.00000000E+00  0.00000000E+00  0.00000000E+00
  0.00000000E+00  0.00000000E+00  0.00000000E+00
  0.00000000E+00  0.00000000E+00  0.00000000E+00
  0.00000000E+00  0.00000000E+00  0.00000000E+00
  0.00000000E+00  0.00000000E+00  0.00000000E+00
  0.00000000E+00  0.00000000E+00  0.00000000E+00
  0.00000000E+00  0.00000000E+00  0.00000000E+00
  0.00000000E+00  0.00000000E+00  0.00000000E+00
  0.00000000E+00  0.00000000E+00  0.00000000E+00
  0.00000000E+00  0.00000000E+00  0.00000000E+00
  0.00000000E+00  0.00000000E+00  0.00000000E+00
  0.00000000E+00  0.00000000E+00  0.00000000E+00
  0.00000000E+00  0.00000000E+00  0.00000000E+00
  0.00000000E+00  0.00000000E+00  0.00000000E+00
  0.00000000E+00  0.00000000E+00  0.00000000E+00
  0.00000000E+00  0.00000000E+00  0.00000000E+00
  0.00000000E+00  0.00000000E+00  0.00000000E+00
  0.00000000E+00  0.00000000E+00  0.00000000E+00
  0.00000000E+00  0.00000000E+00  0.00000000E+00
  0.00000000E+00  0.00000000E+00  0.00000000E+00
  0.00000000E+00  0.00000000E+00  0.00000000E+00
  0.00000000E+00  0.00000000E+00  0.00000000E+00
  0.00000000E+00  0.00000000E+00  0.00000000E+00
  0.00000000E+00  0.00000000E+00  0.00000000E+00
  0.00000000E+00  0.00000000E+00  0.00000000E+00
  0.00000000E+00  0.00000000E+00  0.00000000E+00
