Cu-Os-CO2                               
   1.00000000000000     
     7.6967864037000000    0.0000000000000000    0.0000000000000000
     3.8483927580000001    6.6656128092999998    0.0000000000000000
     0.0000000000000000    0.0000000000000000   23.4632997304554536
   Cu   Os   C    O 
    35     1     1     2
Selective dynamics
Direct
  0.0000000000000000  0.0000000000000000  0.2289345361668111   F   F   F
  0.3333333429999996  0.0000000000000000  0.2289345361668111   F   F   F
  0.6666666870000029  0.0000000000000000  0.2289345361668111   F   F   F
  0.0000000000000000  0.3333333429999996  0.2289345361668111   F   F   F
  0.3333333129999971  0.3333333429999996  0.2289345361668111   F   F   F
  0.6666666870000029  0.3333333429999996  0.2289345361668111   F   F   F
  0.0000000000000000  0.6666666870000029  0.2289345361668111   F   F   F
  0.3333333730000021  0.6666666870000029  0.2289345361668111   F   F   F
  0.6666666269999979  0.6666666870000029  0.2289345361668111   F   F   F
  0.1111111190000003  0.1111111120000032  0.3182144028730534   F   F   F
  0.4444444180000033  0.1111111120000032  0.3182144028730534   F   F   F
  0.7777777909999983  0.1111111120000032  0.3182144028730534   F   F   F
  0.1111111190000003  0.4444444479999987  0.3182144028730534   F   F   F
  0.4444444780000012  0.4444444479999987  0.3182144028730534   F   F   F
  0.7777777310000005  0.4444444479999987  0.3182144028730534   F   F   F
  0.1111111120000032  0.7777777310000005  0.3182144028730534   F   F   F
  0.4444444780000012  0.7777777310000005  0.3182144028730534   F   F   F
  0.7777778510000033  0.7777777310000005  0.3182144028730534   F   F   F
  0.8884896078157212  0.2230208003685590  0.4076151486697981   F   F   F
  0.2212247527015379  0.2212247377015402  0.4061617694589614   F   F   F
  0.5575505545969222  0.2212247377015402  0.4061617694589614   F   F   F
  0.8878356294135230  0.5560821552932396  0.4076689832991320   F   F   F
  0.2212247227015425  0.5575504945969172  0.4061617694589614   F   F   F
  0.5560822152932374  0.5560821552932396  0.4076689832991320   F   F   F
  0.8884896078157212  0.8884896078157212  0.4076151486697981   F   F   F
  0.2230208153685567  0.8884896078157212  0.4076151486697981   F   F   F
  0.5560821552932396  0.8878356294135230  0.4076689832991320   F   F   F
  0.0000000000000000  0.0000000000000000  0.4961721503269203   F   F   F
  0.3326620008895986  0.0003628447085475  0.4974808911486406   F   F   F
  0.6669751844018634  0.0003628447085475  0.4974808911486406   F   F   F
  0.0003628447085475  0.3326620008895986  0.4974808911486406   F   F   F
  0.6669751844018634  0.3326620008895986  0.4974808911486406   F   F   F
  0.0003628447085475  0.6669751844018634  0.4974808911486406   F   F   F
  0.3326620308896011  0.6669751844018634  0.4974808911486406   F   F   F
  0.6666666269999979  0.6666666870000029  0.4961088141194878   F   F   F
  0.3333333129999971  0.3333333429999996  0.4933574072938498   F   F   F
  0.3326572981280336  0.3346853727439196  0.5856535280562269   T   T   T
  0.1819969377229356  0.3332501024338725  0.6031207202724005   T   T   T
  0.4847529288431929  0.3332501024338725  0.6031207202724005   T   T   T
 
  0.00000000E+00  0.00000000E+00  0.00000000E+00
  0.00000000E+00  0.00000000E+00  0.00000000E+00
  0.00000000E+00  0.00000000E+00  0.00000000E+00
  0.00000000E+00  0.00000000E+00  0.00000000E+00
  0.00000000E+00  0.00000000E+00  0.00000000E+00
  0.00000000E+00  0.00000000E+00  0.00000000E+00
  0.00000000E+00  0.00000000E+00  0.00000000E+00
  0.00000000E+00  0.00000000E+00  0.00000000E+00
  0.00000000E+00  0.00000000E+00  0.00000000E+00
  0.00000000E+00  0.00000000E+00  0.00000000E+00
  0.00000000E+00  0.00000000E+00  0.00000000E+00
  0.00000000E+00  0.00000000E+00  0.00000000E+00
  0.00000000E+00  0.00000000E+00  0.00000000E+00
  0.00000000E+00  0.00000000E+00  0.00000000E+00
  0.00000000E+00  0.00000000E+00  0.00000000E+00
  0.00000000E+00  0.00000000E+00  0.00000000E+00
  0.00000000E+00  0.00000000E+00  0.00000000E+00
  0.00000000E+00  0.00000000E+00  0.00000000E+00
  0.00000000E+00  0.00000000E+00  0.00000000E+00
  0.00000000E+00  0.00000000E+00  0.00000000E+00
  0.00000000E+00  0.00000000E+00  0.00000000E+00
  0.00000000E+00  0.00000000E+00  0.00000000E+00
  0.00000000E+00  0.00000000E+00  0.00000000E+00
  0.00000000E+00  0.00000000E+00  0.00000000E+00
  0.00000000E+00  0.00000000E+00  0.00000000E+00
  0.00000000E+00  0.00000000E+00  0.00000000E+00
  0.00000000E+00  0.00000000E+00  0.00000000E+00
  0.00000000E+00  0.00000000E+00  0.00000000E+00
  0.00000000E+00  0.00000000E+00  0.00000000E+00
  0.00000000E+00  0.00000000E+00  0.00000000E+00
  0.00000000E+00  0.00000000E+00  0.00000000E+00
  0.00000000E+00  0.00000000E+00  0.00000000E+00
  0.00000000E+00  0.00000000E+00  0.00000000E+00
  0.00000000E+00  0.00000000E+00  0.00000000E+00
  0.00000000E+00  0.00000000E+00  0.00000000E+00
  0.00000000E+00  0.00000000E+00  0.00000000E+00
  0.00000000E+00  0.00000000E+00  0.00000000E+00
  0.00000000E+00  0.00000000E+00  0.00000000E+00
  0.00000000E+00  0.00000000E+00  0.00000000E+00
