Ag-V-N2                                 
   1.00000000000000     
     8.7913665770999998    0.0000000000000000    0.0000000000000000
     4.3956832885999999    7.6135467898000000    0.0000000000000000
     0.0000000000000000    0.0000000000000000   23.7985715640295403
   Ag   V    N 
    35     1     2
Selective dynamics
Direct
  0.0000000000000000  0.0000000000000000  0.2219539995315074   F   F   F
  0.3333333129999971  0.0000000000000000  0.2219539995315074   F   F   F
  0.6666666269999979  0.0000000000000000  0.2219539995315074   F   F   F
  0.0000000000000000  0.3333333429999996  0.2219539995315074   F   F   F
  0.3333333129999971  0.3333333429999996  0.2219539995315074   F   F   F
  0.6666666870000029  0.3333333429999996  0.2219539995315074   F   F   F
  0.0000000000000000  0.6666666870000029  0.2219539995315074   F   F   F
  0.3333333129999971  0.6666666870000029  0.2219539995315074   F   F   F
  0.6666666269999979  0.6666666870000029  0.2219539995315074   F   F   F
  0.1111111040000026  0.1111111120000032  0.3224939499195187   F   F   F
  0.4444444479999987  0.1111111120000032  0.3224939499195187   F   F   F
  0.7777777909999983  0.1111111120000032  0.3224939499195187   F   F   F
  0.1111110969999984  0.4444444479999987  0.3224939499195187   F   F   F
  0.4444444180000033  0.4444444479999987  0.3224939499195187   F   F   F
  0.7777777909999983  0.4444444479999987  0.3224939499195187   F   F   F
  0.1111111040000026  0.7777777909999983  0.3224939499195187   F   F   F
  0.4444444479999987  0.7777777909999983  0.3224939499195187   F   F   F
  0.7777777909999983  0.7777777909999983  0.3224939499195187   F   F   F
  0.8888465865274071  0.2223068429451729  0.4225614657550807   F   F   F
  0.2226445376378479  0.2226445526378527  0.4218055686467892   F   F   F
  0.5547108647242922  0.2226445526378527  0.4218055686467892   F   F   F
  0.8885295266626585  0.5557352666686697  0.4225111053294484   F   F   F
  0.2226445526378527  0.5547109247242830  0.4218055686467892   F   F   F
  0.5557352666686697  0.5557352666686697  0.4225111053294484   F   F   F
  0.8888465865274071  0.8888465865274071  0.4225614657550807   F   F   F
  0.2223068129451704  0.8888465865274071  0.4225614657550807   F   F   F
  0.5557352066686718  0.8885295266626585  0.4225111053294484   F   F   F
  0.0000000000000000  0.0000000000000000  0.5222739174140401   F   F   F
  0.3335758635562769  0.0061119851352132  0.5232830582274133   F   F   F
  0.6603120913084979  0.0061119851352132  0.5232830582274133   F   F   F
  0.0061119851352132  0.3335758935562865  0.5232830582274133   F   F   F
  0.6603121513085100  0.3335758935562865  0.5232830582274133   F   F   F
  0.0061119851352132  0.6603121513085100  0.5232830582274133   F   F   F
  0.3335758635562769  0.6603121513085100  0.5232830582274133   F   F   F
  0.6666666269999979  0.6666666870000029  0.5225843928183025   F   F   F
  0.3333333129999971  0.3333333429999996  0.5133372914826566   F   F   F
  0.2602156101419225  0.3406503368913238  0.5917870111218934   T   T   T
  0.3991340219667476  0.3406503368913238  0.5917870111218934   T   T   T
 
  0.00000000E+00  0.00000000E+00  0.00000000E+00
  0.00000000E+00  0.00000000E+00  0.00000000E+00
  0.00000000E+00  0.00000000E+00  0.00000000E+00
  0.00000000E+00  0.00000000E+00  0.00000000E+00
  0.00000000E+00  0.00000000E+00  0.00000000E+00
  0.00000000E+00  0.00000000E+00  0.00000000E+00
  0.00000000E+00  0.00000000E+00  0.00000000E+00
  0.00000000E+00  0.00000000E+00  0.00000000E+00
  0.00000000E+00  0.00000000E+00  0.00000000E+00
  0.00000000E+00  0.00000000E+00  0.00000000E+00
  0.00000000E+00  0.00000000E+00  0.00000000E+00
  0.00000000E+00  0.00000000E+00  0.00000000E+00
  0.00000000E+00  0.00000000E+00  0.00000000E+00
  0.00000000E+00  0.00000000E+00  0.00000000E+00
  0.00000000E+00  0.00000000E+00  0.00000000E+00
  0.00000000E+00  0.00000000E+00  0.00000000E+00
  0.00000000E+00  0.00000000E+00  0.00000000E+00
  0.00000000E+00  0.00000000E+00  0.00000000E+00
  0.00000000E+00  0.00000000E+00  0.00000000E+00
  0.00000000E+00  0.00000000E+00  0.00000000E+00
  0.00000000E+00  0.00000000E+00  0.00000000E+00
  0.00000000E+00  0.00000000E+00  0.00000000E+00
  0.00000000E+00  0.00000000E+00  0.00000000E+00
  0.00000000E+00  0.00000000E+00  0.00000000E+00
  0.00000000E+00  0.00000000E+00  0.00000000E+00
  0.00000000E+00  0.00000000E+00  0.00000000E+00
  0.00000000E+00  0.00000000E+00  0.00000000E+00
  0.00000000E+00  0.00000000E+00  0.00000000E+00
  0.00000000E+00  0.00000000E+00  0.00000000E+00
  0.00000000E+00  0.00000000E+00  0.00000000E+00
  0.00000000E+00  0.00000000E+00  0.00000000E+00
  0.00000000E+00  0.00000000E+00  0.00000000E+00
  0.00000000E+00  0.00000000E+00  0.00000000E+00
  0.00000000E+00  0.00000000E+00  0.00000000E+00
  0.00000000E+00  0.00000000E+00  0.00000000E+00
  0.00000000E+00  0.00000000E+00  0.00000000E+00
  0.00000000E+00  0.00000000E+00  0.00000000E+00
  0.00000000E+00  0.00000000E+00  0.00000000E+00
