Ag-Ir-OOH                               
   1.00000000000000     
     8.7913665770999998    0.0000000000000000    0.0000000000000000
     4.3956832885999999    7.6135467898000000    0.0000000000000000
     0.0000000000000000    0.0000000000000000   25.9078406019906637
   Ag   Ir   O    H 
    35     1     2     1
Selective dynamics
Direct
  0.0000000000000000  0.0000000000000000  0.2038837671931404   F   F   F
  0.3333333129999971  0.0000000000000000  0.2038837671931404   F   F   F
  0.6666666269999979  0.0000000000000000  0.2038837671931404   F   F   F
  0.0000000000000000  0.3333333429999996  0.2038837671931404   F   F   F
  0.3333333129999971  0.3333333429999996  0.2038837671931404   F   F   F
  0.6666666870000029  0.3333333429999996  0.2038837671931404   F   F   F
  0.0000000000000000  0.6666666870000029  0.2038837671931404   F   F   F
  0.3333333129999971  0.6666666870000029  0.2038837671931404   F   F   F
  0.6666666269999979  0.6666666870000029  0.2038837671931404   F   F   F
  0.1111111040000026  0.1111111120000032  0.2962383266144002   F   F   F
  0.4444444479999987  0.1111111120000032  0.2962383266144002   F   F   F
  0.7777777909999983  0.1111111120000032  0.2962383266144002   F   F   F
  0.1111110969999984  0.4444444479999987  0.2962383266144002   F   F   F
  0.4444444180000033  0.4444444479999987  0.2962383266144002   F   F   F
  0.7777777909999983  0.4444444479999987  0.2962383266144002   F   F   F
  0.1111111040000026  0.7777777909999983  0.2962383266144002   F   F   F
  0.4444444479999987  0.7777777909999983  0.2962383266144002   F   F   F
  0.7777777909999983  0.7777777909999983  0.2962383266144002   F   F   F
  0.8883527369991100  0.2232945420017671  0.3886271611877419   F   F   F
  0.2219279207052480  0.2219279357052528  0.3868664609051180   F   F   F
  0.5561440985894990  0.2219279357052528  0.3868664609051180   F   F   F
  0.8882489383328220  0.5558755608335915  0.3879849996466405   F   F   F
  0.2219279357052528  0.5561441585894968  0.3868664609051180   F   F   F
  0.5558755608335915  0.5558755608335915  0.3879849996466405   F   F   F
  0.8883527369991100  0.8883527369991100  0.3886271611877419   F   F   F
  0.2232945120017717  0.8883527369991100  0.3886271611877419   F   F   F
  0.5558755008335936  0.8882489383328220  0.3879849996466405   F   F   F
  0.0000000000000000  0.0000000000000000  0.4794749688488267   F   F   F
  0.3331020944374785  0.0065382780879233  0.4801014552839789   F   F   F
  0.6603595674746003  0.0065382780879233  0.4801014552839789   F   F   F
  0.0065382780879233  0.3331021244374810  0.4801014552839789   F   F   F
  0.6603596274745982  0.3331021244374810  0.4801014552839789   F   F   F
  0.0065382780879233  0.6603596274745982  0.4801014552839789   F   F   F
  0.3331020944374785  0.6603596274745982  0.4801014552839789   F   F   F
  0.6666666269999979  0.6666666870000029  0.4790695373862377   F   F   F
  0.3333333129999971  0.3333333429999996  0.4714283087940387   F   F   F
  0.4026828713799643  0.1841240933568574  0.5280159757636107   T   T   T
  0.8886059106074889  0.2248087270869257  0.5380911407244990   T   T   T
  0.8950467641449416  0.2165930406175507  0.5755540271882389   T   T   T
 
  0.00000000E+00  0.00000000E+00  0.00000000E+00
  0.00000000E+00  0.00000000E+00  0.00000000E+00
  0.00000000E+00  0.00000000E+00  0.00000000E+00
  0.00000000E+00  0.00000000E+00  0.00000000E+00
  0.00000000E+00  0.00000000E+00  0.00000000E+00
  0.00000000E+00  0.00000000E+00  0.00000000E+00
  0.00000000E+00  0.00000000E+00  0.00000000E+00
  0.00000000E+00  0.00000000E+00  0.00000000E+00
  0.00000000E+00  0.00000000E+00  0.00000000E+00
  0.00000000E+00  0.00000000E+00  0.00000000E+00
  0.00000000E+00  0.00000000E+00  0.00000000E+00
  0.00000000E+00  0.00000000E+00  0.00000000E+00
  0.00000000E+00  0.00000000E+00  0.00000000E+00
  0.00000000E+00  0.00000000E+00  0.00000000E+00
  0.00000000E+00  0.00000000E+00  0.00000000E+00
  0.00000000E+00  0.00000000E+00  0.00000000E+00
  0.00000000E+00  0.00000000E+00  0.00000000E+00
  0.00000000E+00  0.00000000E+00  0.00000000E+00
  0.00000000E+00  0.00000000E+00  0.00000000E+00
  0.00000000E+00  0.00000000E+00  0.00000000E+00
  0.00000000E+00  0.00000000E+00  0.00000000E+00
  0.00000000E+00  0.00000000E+00  0.00000000E+00
  0.00000000E+00  0.00000000E+00  0.00000000E+00
  0.00000000E+00  0.00000000E+00  0.00000000E+00
  0.00000000E+00  0.00000000E+00  0.00000000E+00
  0.00000000E+00  0.00000000E+00  0.00000000E+00
  0.00000000E+00  0.00000000E+00  0.00000000E+00
  0.00000000E+00  0.00000000E+00  0.00000000E+00
  0.00000000E+00  0.00000000E+00  0.00000000E+00
  0.00000000E+00  0.00000000E+00  0.00000000E+00
  0.00000000E+00  0.00000000E+00  0.00000000E+00
  0.00000000E+00  0.00000000E+00  0.00000000E+00
  0.00000000E+00  0.00000000E+00  0.00000000E+00
  0.00000000E+00  0.00000000E+00  0.00000000E+00
  0.00000000E+00  0.00000000E+00  0.00000000E+00
  0.00000000E+00  0.00000000E+00  0.00000000E+00
  0.00000000E+00  0.00000000E+00  0.00000000E+00
  0.00000000E+00  0.00000000E+00  0.00000000E+00
  0.00000000E+00  0.00000000E+00  0.00000000E+00
