Ag-Mn-CO2                               
   1.00000000000000     
     8.7913665770999998    0.0000000000000000    0.0000000000000000
     4.3956832885999999    7.6135467898000000    0.0000000000000000
     0.0000000000000000    0.0000000000000000   24.3553720923146599
   Ag   Mn   C    O 
    35     1     1     2
Selective dynamics
Direct
  0.0000000000000000  0.0000000000000000  0.2168797964470528   F   F   F
  0.3333333129999971  0.0000000000000000  0.2168797964470528   F   F   F
  0.6666666269999979  0.0000000000000000  0.2168797964470528   F   F   F
  0.0000000000000000  0.3333333429999996  0.2168797964470528   F   F   F
  0.3333333129999971  0.3333333429999996  0.2168797964470528   F   F   F
  0.6666666870000029  0.3333333429999996  0.2168797964470528   F   F   F
  0.0000000000000000  0.6666666870000029  0.2168797964470528   F   F   F
  0.3333333129999971  0.6666666870000029  0.2168797964470528   F   F   F
  0.6666666269999979  0.6666666870000029  0.2168797964470528   F   F   F
  0.1111111040000026  0.1111111120000032  0.3151212519782476   F   F   F
  0.4444444479999987  0.1111111120000032  0.3151212519782476   F   F   F
  0.7777777909999983  0.1111111120000032  0.3151212519782476   F   F   F
  0.1111110969999984  0.4444444479999987  0.3151212519782476   F   F   F
  0.4444444180000033  0.4444444479999987  0.3151212519782476   F   F   F
  0.7777777909999983  0.4444444479999987  0.3151212519782476   F   F   F
  0.1111111040000026  0.7777777909999983  0.3151212519782476   F   F   F
  0.4444444479999987  0.7777777909999983  0.3151212519782476   F   F   F
  0.7777777909999983  0.7777777909999983  0.3151212519782476   F   F   F
  0.8887148833031517  0.2225702493936907  0.4131077709052917   F   F   F
  0.2230661282861206  0.2230661432861183  0.4122437962217873   F   F   F
  0.5538676834277609  0.2230661432861183  0.4122437962217873   F   F   F
  0.8884839643255233  0.5557580478372373  0.4127896682158365   F   F   F
  0.2230661432861183  0.5538677434277588  0.4122437962217873   F   F   F
  0.5557580478372373  0.5557580478372373  0.4127896682158365   F   F   F
  0.8887148833031517  0.8887148833031517  0.4131077709052917   F   F   F
  0.2225702193936883  0.8887148833031517  0.4131077709052917   F   F   F
  0.5557579878372394  0.8884839643255233  0.4127896682158365   F   F   F
  0.0000000000000000  0.0000000000000000  0.5101693380441930   F   F   F
  0.3332766827137590  0.0078796074390297  0.5107107182318273   F   F   F
  0.6588436498472134  0.0078796074390297  0.5107107182318273   F   F   F
  0.0078796074390297  0.3332767127137615  0.5107107182318273   F   F   F
  0.6588437098472113  0.3332767127137615  0.5107107182318273   F   F   F
  0.0078796074390297  0.6588437098472113  0.5107107182318273   F   F   F
  0.3332766827137590  0.6588437098472113  0.5107107182318273   F   F   F
  0.6666666269999979  0.6666666870000029  0.5101426824594384   F   F   F
  0.3333333129999971  0.3333333429999996  0.4996715573885027   F   F   F
  0.2592856633968393  0.3212988245530025  0.5734289912552402   T   T   T
  0.1657141859553672  0.3069464899012293  0.6080286903804922   T   T   T
  0.3882618850291080  0.3545372437225986  0.5760548098013124   T   T   T
 
  0.00000000E+00  0.00000000E+00  0.00000000E+00
  0.00000000E+00  0.00000000E+00  0.00000000E+00
  0.00000000E+00  0.00000000E+00  0.00000000E+00
  0.00000000E+00  0.00000000E+00  0.00000000E+00
  0.00000000E+00  0.00000000E+00  0.00000000E+00
  0.00000000E+00  0.00000000E+00  0.00000000E+00
  0.00000000E+00  0.00000000E+00  0.00000000E+00
  0.00000000E+00  0.00000000E+00  0.00000000E+00
  0.00000000E+00  0.00000000E+00  0.00000000E+00
  0.00000000E+00  0.00000000E+00  0.00000000E+00
  0.00000000E+00  0.00000000E+00  0.00000000E+00
  0.00000000E+00  0.00000000E+00  0.00000000E+00
  0.00000000E+00  0.00000000E+00  0.00000000E+00
  0.00000000E+00  0.00000000E+00  0.00000000E+00
  0.00000000E+00  0.00000000E+00  0.00000000E+00
  0.00000000E+00  0.00000000E+00  0.00000000E+00
  0.00000000E+00  0.00000000E+00  0.00000000E+00
  0.00000000E+00  0.00000000E+00  0.00000000E+00
  0.00000000E+00  0.00000000E+00  0.00000000E+00
  0.00000000E+00  0.00000000E+00  0.00000000E+00
  0.00000000E+00  0.00000000E+00  0.00000000E+00
  0.00000000E+00  0.00000000E+00  0.00000000E+00
  0.00000000E+00  0.00000000E+00  0.00000000E+00
  0.00000000E+00  0.00000000E+00  0.00000000E+00
  0.00000000E+00  0.00000000E+00  0.00000000E+00
  0.00000000E+00  0.00000000E+00  0.00000000E+00
  0.00000000E+00  0.00000000E+00  0.00000000E+00
  0.00000000E+00  0.00000000E+00  0.00000000E+00
  0.00000000E+00  0.00000000E+00  0.00000000E+00
  0.00000000E+00  0.00000000E+00  0.00000000E+00
  0.00000000E+00  0.00000000E+00  0.00000000E+00
  0.00000000E+00  0.00000000E+00  0.00000000E+00
  0.00000000E+00  0.00000000E+00  0.00000000E+00
  0.00000000E+00  0.00000000E+00  0.00000000E+00
  0.00000000E+00  0.00000000E+00  0.00000000E+00
  0.00000000E+00  0.00000000E+00  0.00000000E+00
  0.00000000E+00  0.00000000E+00  0.00000000E+00
  0.00000000E+00  0.00000000E+00  0.00000000E+00
  0.00000000E+00  0.00000000E+00  0.00000000E+00
