Au-Ir-H2                                
   1.00000000000000     
     8.8135128021000000    0.0000000000000000    0.0000000000000000
     4.4067569092000003    7.6327256898000000    0.0000000000000000
     0.0000000000000000    0.0000000000000000   23.3038164724993209
   Au   Ir   H 
    35     1     2
Selective dynamics
Direct
  0.0000000000000000  0.0000000000000000  0.2265886334643099   F   F   F
  0.3333333429999996  0.0000000000000000  0.2265886334643099   F   F   F
  0.6666666870000029  0.0000000000000000  0.2265886334643099   F   F   F
  0.0000000000000000  0.3333333429999996  0.2265886334643099   F   F   F
  0.3333333129999971  0.3333333429999996  0.2265886334643099   F   F   F
  0.6666666870000029  0.3333333429999996  0.2265886334643099   F   F   F
  0.0000000000000000  0.6666666870000029  0.2265886334643099   F   F   F
  0.3333333429999996  0.6666666870000029  0.2265886334643099   F   F   F
  0.6666666269999979  0.6666666870000029  0.2265886334643099   F   F   F
  0.1111111190000003  0.1111111120000032  0.3295217354104096   F   F   F
  0.4444444180000033  0.1111111120000032  0.3295217354104096   F   F   F
  0.7777777909999983  0.1111111120000032  0.3295217354104096   F   F   F
  0.1111111270000009  0.4444444479999987  0.3295217354104096   F   F   F
  0.4444444780000012  0.4444444479999987  0.3295217354104096   F   F   F
  0.7777777310000005  0.4444444479999987  0.3295217354104096   F   F   F
  0.1111110900000014  0.7777777909999983  0.3295217354104096   F   F   F
  0.4444444479999987  0.7777777909999983  0.3295217354104096   F   F   F
  0.7777778510000033  0.7777777909999983  0.3295217354104096   F   F   F
  0.8886126423151381  0.2227747313697321  0.4326023111991404   F   F   F
  0.2216648805198602  0.2216648655198625  0.4307524759814925   F   F   F
  0.5566702989602632  0.2216648655198625  0.4307524759814925   F   F   F
  0.8866935878123670  0.5566532360938226  0.4317422327657781   F   F   F
  0.2216648355198600  0.5566702989602632  0.4307524759814925   F   F   F
  0.5566532360938226  0.5566532360938226  0.4317422327657781   F   F   F
  0.8886126423151381  0.8886126423151381  0.4326023111991404   F   F   F
  0.2227747613697275  0.8886126423151381  0.4326023111991404   F   F   F
  0.5566531760938176  0.8866935878123670  0.4317422327657781   F   F   F
  0.0000000000000000  0.0000000000000000  0.5362292739741505   F   F   F
  0.3333141867134728  0.0052536554553768  0.5356668550818284   F   F   F
  0.6614321878311600  0.0052536554553768  0.5356668550818284   F   F   F
  0.0052536554553768  0.3333141867134728  0.5356668550818284   F   F   F
  0.6614321878311600  0.3333141867134728  0.5356668550818284   F   F   F
  0.0052536554553768  0.6614321878311600  0.5356668550818284   F   F   F
  0.3333141867134728  0.6614321878311600  0.5356668550818284   F   F   F
  0.6666666269999979  0.6666666870000029  0.5360372820579471   F   F   F
  0.3333333129999971  0.3333333429999996  0.5250845825931876   F   F   F
  0.2389321612697302  0.3236954607907734  0.5829172409393379   T   T   T
  0.4373723469394974  0.3236954607907734  0.5829172409393379   T   T   T
 
  0.00000000E+00  0.00000000E+00  0.00000000E+00
  0.00000000E+00  0.00000000E+00  0.00000000E+00
  0.00000000E+00  0.00000000E+00  0.00000000E+00
  0.00000000E+00  0.00000000E+00  0.00000000E+00
  0.00000000E+00  0.00000000E+00  0.00000000E+00
  0.00000000E+00  0.00000000E+00  0.00000000E+00
  0.00000000E+00  0.00000000E+00  0.00000000E+00
  0.00000000E+00  0.00000000E+00  0.00000000E+00
  0.00000000E+00  0.00000000E+00  0.00000000E+00
  0.00000000E+00  0.00000000E+00  0.00000000E+00
  0.00000000E+00  0.00000000E+00  0.00000000E+00
  0.00000000E+00  0.00000000E+00  0.00000000E+00
  0.00000000E+00  0.00000000E+00  0.00000000E+00
  0.00000000E+00  0.00000000E+00  0.00000000E+00
  0.00000000E+00  0.00000000E+00  0.00000000E+00
  0.00000000E+00  0.00000000E+00  0.00000000E+00
  0.00000000E+00  0.00000000E+00  0.00000000E+00
  0.00000000E+00  0.00000000E+00  0.00000000E+00
  0.00000000E+00  0.00000000E+00  0.00000000E+00
  0.00000000E+00  0.00000000E+00  0.00000000E+00
  0.00000000E+00  0.00000000E+00  0.00000000E+00
  0.00000000E+00  0.00000000E+00  0.00000000E+00
  0.00000000E+00  0.00000000E+00  0.00000000E+00
  0.00000000E+00  0.00000000E+00  0.00000000E+00
  0.00000000E+00  0.00000000E+00  0.00000000E+00
  0.00000000E+00  0.00000000E+00  0.00000000E+00
  0.00000000E+00  0.00000000E+00  0.00000000E+00
  0.00000000E+00  0.00000000E+00  0.00000000E+00
  0.00000000E+00  0.00000000E+00  0.00000000E+00
  0.00000000E+00  0.00000000E+00  0.00000000E+00
  0.00000000E+00  0.00000000E+00  0.00000000E+00
  0.00000000E+00  0.00000000E+00  0.00000000E+00
  0.00000000E+00  0.00000000E+00  0.00000000E+00
  0.00000000E+00  0.00000000E+00  0.00000000E+00
  0.00000000E+00  0.00000000E+00  0.00000000E+00
  0.00000000E+00  0.00000000E+00  0.00000000E+00
  0.00000000E+00  0.00000000E+00  0.00000000E+00
  0.00000000E+00  0.00000000E+00  0.00000000E+00
