Cu-Os-O2                                
   1.00000000000000     
     7.6967864037000000    0.0000000000000000    0.0000000000000000
     3.8483927580000001    6.6656128092999998    0.0000000000000000
     0.0000000000000000    0.0000000000000000   23.7897786731327727
   Cu   Os   O 
    35     1     2
Selective dynamics
Direct
  0.0000000000000000  0.0000000000000000  0.2257927538771511   F   F   F
  0.3333333429999996  0.0000000000000000  0.2257927538771511   F   F   F
  0.6666666870000029  0.0000000000000000  0.2257927538771511   F   F   F
  0.0000000000000000  0.3333333429999996  0.2257927538771511   F   F   F
  0.3333333129999971  0.3333333429999996  0.2257927538771511   F   F   F
  0.6666666870000029  0.3333333429999996  0.2257927538771511   F   F   F
  0.0000000000000000  0.6666666870000029  0.2257927538771511   F   F   F
  0.3333333730000021  0.6666666870000029  0.2257927538771511   F   F   F
  0.6666666269999979  0.6666666870000029  0.2257927538771511   F   F   F
  0.1111111190000003  0.1111111120000032  0.3138473886514319   F   F   F
  0.4444444180000033  0.1111111120000032  0.3138473886514319   F   F   F
  0.7777777909999983  0.1111111120000032  0.3138473886514319   F   F   F
  0.1111111190000003  0.4444444479999987  0.3138473886514319   F   F   F
  0.4444444780000012  0.4444444479999987  0.3138473886514319   F   F   F
  0.7777777310000005  0.4444444479999987  0.3138473886514319   F   F   F
  0.1111111120000032  0.7777777310000005  0.3138473886514319   F   F   F
  0.4444444780000012  0.7777777310000005  0.3138473886514319   F   F   F
  0.7777778510000033  0.7777777310000005  0.3138473886514319   F   F   F
  0.8884896078157212  0.2230208003685590  0.4020212436324471   F   F   F
  0.2212247527015379  0.2212247377015402  0.4005878098660176   F   F   F
  0.5575505545969222  0.2212247377015402  0.4005878098660176   F   F   F
  0.8878356294135230  0.5560821552932396  0.4020743394624375   F   F   F
  0.2212247227015425  0.5575504945969172  0.4005878098660176   F   F   F
  0.5560822152932374  0.5560821552932396  0.4020743394624375   F   F   F
  0.8884896078157212  0.8884896078157212  0.4020212436324471   F   F   F
  0.2230208153685567  0.8884896078157212  0.4020212436324471   F   F   F
  0.5560821552932396  0.8878356294135230  0.4020743394624375   F   F   F
  0.0000000000000000  0.0000000000000000  0.4893629335935330   F   F   F
  0.3326620008895986  0.0003628447085475  0.4906537139152576   F   F   F
  0.6669751844018634  0.0003628447085475  0.4906537139152576   F   F   F
  0.0003628447085475  0.3326620008895986  0.4906537139152576   F   F   F
  0.6669751844018634  0.3326620008895986  0.4906537139152576   F   F   F
  0.0003628447085475  0.6669751844018634  0.4906537139152576   F   F   F
  0.3326620308896011  0.6669751844018634  0.4906537139152576   F   F   F
  0.6666666269999979  0.6666666870000029  0.4893004665803176   F   F   F
  0.3333333129999971  0.3333333429999996  0.4865868186764288   F   F   F
  0.2426045443505132  0.3308574639710713  0.5679452489647616   T   T   T
  0.4265379606784165  0.3308574639710713  0.5679452489647616   T   T   T
 
  0.00000000E+00  0.00000000E+00  0.00000000E+00
  0.00000000E+00  0.00000000E+00  0.00000000E+00
  0.00000000E+00  0.00000000E+00  0.00000000E+00
  0.00000000E+00  0.00000000E+00  0.00000000E+00
  0.00000000E+00  0.00000000E+00  0.00000000E+00
  0.00000000E+00  0.00000000E+00  0.00000000E+00
  0.00000000E+00  0.00000000E+00  0.00000000E+00
  0.00000000E+00  0.00000000E+00  0.00000000E+00
  0.00000000E+00  0.00000000E+00  0.00000000E+00
  0.00000000E+00  0.00000000E+00  0.00000000E+00
  0.00000000E+00  0.00000000E+00  0.00000000E+00
  0.00000000E+00  0.00000000E+00  0.00000000E+00
  0.00000000E+00  0.00000000E+00  0.00000000E+00
  0.00000000E+00  0.00000000E+00  0.00000000E+00
  0.00000000E+00  0.00000000E+00  0.00000000E+00
  0.00000000E+00  0.00000000E+00  0.00000000E+00
  0.00000000E+00  0.00000000E+00  0.00000000E+00
  0.00000000E+00  0.00000000E+00  0.00000000E+00
  0.00000000E+00  0.00000000E+00  0.00000000E+00
  0.00000000E+00  0.00000000E+00  0.00000000E+00
  0.00000000E+00  0.00000000E+00  0.00000000E+00
  0.00000000E+00  0.00000000E+00  0.00000000E+00
  0.00000000E+00  0.00000000E+00  0.00000000E+00
  0.00000000E+00  0.00000000E+00  0.00000000E+00
  0.00000000E+00  0.00000000E+00  0.00000000E+00
  0.00000000E+00  0.00000000E+00  0.00000000E+00
  0.00000000E+00  0.00000000E+00  0.00000000E+00
  0.00000000E+00  0.00000000E+00  0.00000000E+00
  0.00000000E+00  0.00000000E+00  0.00000000E+00
  0.00000000E+00  0.00000000E+00  0.00000000E+00
  0.00000000E+00  0.00000000E+00  0.00000000E+00
  0.00000000E+00  0.00000000E+00  0.00000000E+00
  0.00000000E+00  0.00000000E+00  0.00000000E+00
  0.00000000E+00  0.00000000E+00  0.00000000E+00
  0.00000000E+00  0.00000000E+00  0.00000000E+00
  0.00000000E+00  0.00000000E+00  0.00000000E+00
  0.00000000E+00  0.00000000E+00  0.00000000E+00
  0.00000000E+00  0.00000000E+00  0.00000000E+00
