Ag-Pd-CO2                               
   1.00000000000000     
     8.7913665770999998    0.0000000000000000    0.0000000000000000
     4.3956832885999999    7.6135467898000000    0.0000000000000000
     0.0000000000000000    0.0000000000000000   24.3553720923146599
   Ag   Pd   C    O 
    35     1     1     2
Selective dynamics
Direct
  0.0000000000000000  0.0000000000000000  0.2168797964470528   F   F   F
  0.3333333129999971  0.0000000000000000  0.2168797964470528   F   F   F
  0.6666666269999979  0.0000000000000000  0.2168797964470528   F   F   F
  0.0000000000000000  0.3333333429999996  0.2168797964470528   F   F   F
  0.3333333129999971  0.3333333429999996  0.2168797964470528   F   F   F
  0.6666666870000029  0.3333333429999996  0.2168797964470528   F   F   F
  0.0000000000000000  0.6666666870000029  0.2168797964470528   F   F   F
  0.3333333129999971  0.6666666870000029  0.2168797964470528   F   F   F
  0.6666666269999979  0.6666666870000029  0.2168797964470528   F   F   F
  0.1111111040000026  0.1111111120000032  0.3151212519782476   F   F   F
  0.4444444479999987  0.1111111120000032  0.3151212519782476   F   F   F
  0.7777777909999983  0.1111111120000032  0.3151212519782476   F   F   F
  0.1111110969999984  0.4444444479999987  0.3151212519782476   F   F   F
  0.4444444180000033  0.4444444479999987  0.3151212519782476   F   F   F
  0.7777777909999983  0.4444444479999987  0.3151212519782476   F   F   F
  0.1111111040000026  0.7777777909999983  0.3151212519782476   F   F   F
  0.4444444479999987  0.7777777909999983  0.3151212519782476   F   F   F
  0.7777777909999983  0.7777777909999983  0.3151212519782476   F   F   F
  0.8887301377009393  0.2225397405981298  0.4127377657663374   F   F   F
  0.2220376286556700  0.2220376436556677  0.4122292076197525   F   F   F
  0.5559246826886479  0.2220376436556677  0.4122292076197525   F   F   F
  0.8888542602374372  0.5555728998812697  0.4125204985113129   F   F   F
  0.2220376436556677  0.5559247426886529  0.4122292076197525   F   F   F
  0.5555728998812697  0.5555728998812697  0.4125204985113129   F   F   F
  0.8887301377009393  0.8887301377009393  0.4127377657663374   F   F   F
  0.2225397105981202  0.8887301377009393  0.4127377657663374   F   F   F
  0.5555728398812718  0.8888542602374372  0.4125204985113129   F   F   F
  0.0000000000000000  0.0000000000000000  0.5100529868988630   F   F   F
  0.3334471993126087  0.0025011092916785  0.5101319243850710   F   F   F
  0.6640516313957079  0.0025011092916785  0.5101319243850710   F   F   F
  0.0025011092916785  0.3334472293126112  0.5101319243850710   F   F   F
  0.6640516913957129  0.3334472293126112  0.5101319243850710   F   F   F
  0.0025011092916785  0.6640516913957129  0.5101319243850710   F   F   F
  0.3334471993126087  0.6640516913957129  0.5101319243850710   F   F   F
  0.6666666269999979  0.6666666870000029  0.5098697497195204   F   F   F
  0.3333333129999971  0.3333333429999996  0.5044605790673984   F   F   F
  0.3392148102671353  0.3337386456223130  0.6501508741229030   T   T   T
  0.2054865407772970  0.3339857039380196  0.6530827725152226   T   T   T
  0.4731788739419720  0.3333370944733458  0.6476064417106639   T   T   T
 
  0.00000000E+00  0.00000000E+00  0.00000000E+00
  0.00000000E+00  0.00000000E+00  0.00000000E+00
  0.00000000E+00  0.00000000E+00  0.00000000E+00
  0.00000000E+00  0.00000000E+00  0.00000000E+00
  0.00000000E+00  0.00000000E+00  0.00000000E+00
  0.00000000E+00  0.00000000E+00  0.00000000E+00
  0.00000000E+00  0.00000000E+00  0.00000000E+00
  0.00000000E+00  0.00000000E+00  0.00000000E+00
  0.00000000E+00  0.00000000E+00  0.00000000E+00
  0.00000000E+00  0.00000000E+00  0.00000000E+00
  0.00000000E+00  0.00000000E+00  0.00000000E+00
  0.00000000E+00  0.00000000E+00  0.00000000E+00
  0.00000000E+00  0.00000000E+00  0.00000000E+00
  0.00000000E+00  0.00000000E+00  0.00000000E+00
  0.00000000E+00  0.00000000E+00  0.00000000E+00
  0.00000000E+00  0.00000000E+00  0.00000000E+00
  0.00000000E+00  0.00000000E+00  0.00000000E+00
  0.00000000E+00  0.00000000E+00  0.00000000E+00
  0.00000000E+00  0.00000000E+00  0.00000000E+00
  0.00000000E+00  0.00000000E+00  0.00000000E+00
  0.00000000E+00  0.00000000E+00  0.00000000E+00
  0.00000000E+00  0.00000000E+00  0.00000000E+00
  0.00000000E+00  0.00000000E+00  0.00000000E+00
  0.00000000E+00  0.00000000E+00  0.00000000E+00
  0.00000000E+00  0.00000000E+00  0.00000000E+00
  0.00000000E+00  0.00000000E+00  0.00000000E+00
  0.00000000E+00  0.00000000E+00  0.00000000E+00
  0.00000000E+00  0.00000000E+00  0.00000000E+00
  0.00000000E+00  0.00000000E+00  0.00000000E+00
  0.00000000E+00  0.00000000E+00  0.00000000E+00
  0.00000000E+00  0.00000000E+00  0.00000000E+00
  0.00000000E+00  0.00000000E+00  0.00000000E+00
  0.00000000E+00  0.00000000E+00  0.00000000E+00
  0.00000000E+00  0.00000000E+00  0.00000000E+00
  0.00000000E+00  0.00000000E+00  0.00000000E+00
  0.00000000E+00  0.00000000E+00  0.00000000E+00
  0.00000000E+00  0.00000000E+00  0.00000000E+00
  0.00000000E+00  0.00000000E+00  0.00000000E+00
  0.00000000E+00  0.00000000E+00  0.00000000E+00
