Ag-Re-OOH                               
   1.00000000000000     
     8.7913665770999998    0.0000000000000000    0.0000000000000000
     4.3956832885999999    7.6135467898000000    0.0000000000000000
     0.0000000000000000    0.0000000000000000   25.9078406019906637
   Ag   Re   O    H 
    35     1     2     1
Selective dynamics
Direct
  0.0000000000000000  0.0000000000000000  0.2038837671931404   F   F   F
  0.3333333129999971  0.0000000000000000  0.2038837671931404   F   F   F
  0.6666666269999979  0.0000000000000000  0.2038837671931404   F   F   F
  0.0000000000000000  0.3333333429999996  0.2038837671931404   F   F   F
  0.3333333129999971  0.3333333429999996  0.2038837671931404   F   F   F
  0.6666666870000029  0.3333333429999996  0.2038837671931404   F   F   F
  0.0000000000000000  0.6666666870000029  0.2038837671931404   F   F   F
  0.3333333129999971  0.6666666870000029  0.2038837671931404   F   F   F
  0.6666666269999979  0.6666666870000029  0.2038837671931404   F   F   F
  0.1111111040000026  0.1111111120000032  0.2962383266144002   F   F   F
  0.4444444479999987  0.1111111120000032  0.2962383266144002   F   F   F
  0.7777777909999983  0.1111111120000032  0.2962383266144002   F   F   F
  0.1111110969999984  0.4444444479999987  0.2962383266144002   F   F   F
  0.4444444180000033  0.4444444479999987  0.2962383266144002   F   F   F
  0.7777777909999983  0.4444444479999987  0.2962383266144002   F   F   F
  0.1111111040000026  0.7777777909999983  0.2962383266144002   F   F   F
  0.4444444479999987  0.7777777909999983  0.2962383266144002   F   F   F
  0.7777777909999983  0.7777777909999983  0.2962383266144002   F   F   F
  0.8885374747334680  0.2229250665330511  0.3885980651401795   F   F   F
  0.2221495139031404  0.2221495289031381  0.3868003163632210   F   F   F
  0.5557009121937071  0.2221495289031381  0.3868003163632210   F   F   F
  0.8879816083280616  0.5560092258359575  0.3881821416640534   F   F   F
  0.2221495289031381  0.5557009721937121  0.3868003163632210   F   F   F
  0.5560092258359575  0.5560092258359575  0.3881821416640534   F   F   F
  0.8885374747334680  0.8885374747334680  0.3885980651401795   F   F   F
  0.2229250365330486  0.8885374747334680  0.3885980651401795   F   F   F
  0.5560091658359596  0.8879816083280616  0.3881821416640534   F   F   F
  0.0000000000000000  0.0000000000000000  0.4797931175313579   F   F   F
  0.3330302481591687  0.0077223461327094  0.4811027486850392   F   F   F
  0.6592473457081311  0.0077223461327094  0.4811027486850392   F   F   F
  0.0077223461327094  0.3330302781591783  0.4811027486850392   F   F   F
  0.6592474057081290  0.3330302781591783  0.4811027486850392   F   F   F
  0.0077223461327094  0.6592474057081290  0.4811027486850392   F   F   F
  0.3330302481591687  0.6592474057081290  0.4811027486850392   F   F   F
  0.6666666269999979  0.6666666870000029  0.4796047497191864   F   F   F
  0.3333333129999971  0.3333333429999996  0.4708530476101984   F   F   F
  0.3217743499642651  0.3307881024405290  0.5369423865016429   T   T   T
  0.1030148484077813  0.1056373641354824  0.5404437942375395   T   T   T
  0.0936677552338594  0.1015958957531211  0.5777973096669129   T   T   T
 
  0.00000000E+00  0.00000000E+00  0.00000000E+00
  0.00000000E+00  0.00000000E+00  0.00000000E+00
  0.00000000E+00  0.00000000E+00  0.00000000E+00
  0.00000000E+00  0.00000000E+00  0.00000000E+00
  0.00000000E+00  0.00000000E+00  0.00000000E+00
  0.00000000E+00  0.00000000E+00  0.00000000E+00
  0.00000000E+00  0.00000000E+00  0.00000000E+00
  0.00000000E+00  0.00000000E+00  0.00000000E+00
  0.00000000E+00  0.00000000E+00  0.00000000E+00
  0.00000000E+00  0.00000000E+00  0.00000000E+00
  0.00000000E+00  0.00000000E+00  0.00000000E+00
  0.00000000E+00  0.00000000E+00  0.00000000E+00
  0.00000000E+00  0.00000000E+00  0.00000000E+00
  0.00000000E+00  0.00000000E+00  0.00000000E+00
  0.00000000E+00  0.00000000E+00  0.00000000E+00
  0.00000000E+00  0.00000000E+00  0.00000000E+00
  0.00000000E+00  0.00000000E+00  0.00000000E+00
  0.00000000E+00  0.00000000E+00  0.00000000E+00
  0.00000000E+00  0.00000000E+00  0.00000000E+00
  0.00000000E+00  0.00000000E+00  0.00000000E+00
  0.00000000E+00  0.00000000E+00  0.00000000E+00
  0.00000000E+00  0.00000000E+00  0.00000000E+00
  0.00000000E+00  0.00000000E+00  0.00000000E+00
  0.00000000E+00  0.00000000E+00  0.00000000E+00
  0.00000000E+00  0.00000000E+00  0.00000000E+00
  0.00000000E+00  0.00000000E+00  0.00000000E+00
  0.00000000E+00  0.00000000E+00  0.00000000E+00
  0.00000000E+00  0.00000000E+00  0.00000000E+00
  0.00000000E+00  0.00000000E+00  0.00000000E+00
  0.00000000E+00  0.00000000E+00  0.00000000E+00
  0.00000000E+00  0.00000000E+00  0.00000000E+00
  0.00000000E+00  0.00000000E+00  0.00000000E+00
  0.00000000E+00  0.00000000E+00  0.00000000E+00
  0.00000000E+00  0.00000000E+00  0.00000000E+00
  0.00000000E+00  0.00000000E+00  0.00000000E+00
  0.00000000E+00  0.00000000E+00  0.00000000E+00
  0.00000000E+00  0.00000000E+00  0.00000000E+00
  0.00000000E+00  0.00000000E+00  0.00000000E+00
  0.00000000E+00  0.00000000E+00  0.00000000E+00
