Ag-W-C                                  
   1.00000000000000     
     8.7913665770999998    0.0000000000000000    0.0000000000000000
     4.3956832885999999    7.6135467898000000    0.0000000000000000
     0.0000000000000000    0.0000000000000000   24.3619652400959730
   Ag   W    C 
    35     1     1
Selective dynamics
Direct
  0.0000000000000000  0.0000000000000000  0.2168211016523287   F   F   F
  0.3333333129999971  0.0000000000000000  0.2168211016523287   F   F   F
  0.6666666269999979  0.0000000000000000  0.2168211016523287   F   F   F
  0.0000000000000000  0.3333333429999996  0.2168211016523287   F   F   F
  0.3333333129999971  0.3333333429999996  0.2168211016523287   F   F   F
  0.6666666870000029  0.3333333429999996  0.2168211016523287   F   F   F
  0.0000000000000000  0.6666666870000029  0.2168211016523287   F   F   F
  0.3333333129999971  0.6666666870000029  0.2168211016523287   F   F   F
  0.6666666269999979  0.6666666870000029  0.2168211016523287   F   F   F
  0.1111111040000026  0.1111111120000032  0.3150359698196610   F   F   F
  0.4444444479999987  0.1111111120000032  0.3150359698196610   F   F   F
  0.7777777909999983  0.1111111120000032  0.3150359698196610   F   F   F
  0.1111110969999984  0.4444444479999987  0.3150359698196610   F   F   F
  0.4444444180000033  0.4444444479999987  0.3150359698196610   F   F   F
  0.7777777909999983  0.4444444479999987  0.3150359698196610   F   F   F
  0.1111111040000026  0.7777777909999983  0.3150359698196610   F   F   F
  0.4444444479999987  0.7777777909999983  0.3150359698196610   F   F   F
  0.7777777909999983  0.7777777909999983  0.3150359698196610   F   F   F
  0.8886825466117685  0.2226349227764715  0.4134331605723105   F   F   F
  0.2218861256664226  0.2218861406664203  0.4114931908414476   F   F   F
  0.5562276886671569  0.2218861406664203  0.4114931908414476   F   F   F
  0.8880293449455579  0.5559853575272129  0.4131367707853286   F   F   F
  0.2218861406664203  0.5562277486671476  0.4114931908414476   F   F   F
  0.5559853575272129  0.5559853575272129  0.4131367707853286   F   F   F
  0.8886825466117685  0.8886825466117685  0.4134331605723105   F   F   F
  0.2226348927764619  0.8886825466117685  0.4134331605723105   F   F   F
  0.5559852975272079  0.8880293449455579  0.4131367707853286   F   F   F
  0.0000000000000000  0.0000000000000000  0.5111825934198393   F   F   F
  0.3332125206343832  0.0073839332591135  0.5125775836323498   F   F   F
  0.6594034861065197  0.0073839332591135  0.5125775836323498   F   F   F
  0.0073839332591135  0.3332125506343786  0.5125775836323498   F   F   F
  0.6594035461065175  0.3332125506343786  0.5125775836323498   F   F   F
  0.0073839332591135  0.6594035461065175  0.5125775836323498   F   F   F
  0.3332125206343832  0.6594035461065175  0.5125775836323498   F   F   F
  0.6666666269999979  0.6666666870000029  0.5109594065619518   F   F   F
  0.3333333129999971  0.3333333429999996  0.5008839467306530   F   F   F
  0.3333333129999971  0.3333333429999996  0.5742723666271132   T   T   T
 
  0.00000000E+00  0.00000000E+00  0.00000000E+00
  0.00000000E+00  0.00000000E+00  0.00000000E+00
  0.00000000E+00  0.00000000E+00  0.00000000E+00
  0.00000000E+00  0.00000000E+00  0.00000000E+00
  0.00000000E+00  0.00000000E+00  0.00000000E+00
  0.00000000E+00  0.00000000E+00  0.00000000E+00
  0.00000000E+00  0.00000000E+00  0.00000000E+00
  0.00000000E+00  0.00000000E+00  0.00000000E+00
  0.00000000E+00  0.00000000E+00  0.00000000E+00
  0.00000000E+00  0.00000000E+00  0.00000000E+00
  0.00000000E+00  0.00000000E+00  0.00000000E+00
  0.00000000E+00  0.00000000E+00  0.00000000E+00
  0.00000000E+00  0.00000000E+00  0.00000000E+00
  0.00000000E+00  0.00000000E+00  0.00000000E+00
  0.00000000E+00  0.00000000E+00  0.00000000E+00
  0.00000000E+00  0.00000000E+00  0.00000000E+00
  0.00000000E+00  0.00000000E+00  0.00000000E+00
  0.00000000E+00  0.00000000E+00  0.00000000E+00
  0.00000000E+00  0.00000000E+00  0.00000000E+00
  0.00000000E+00  0.00000000E+00  0.00000000E+00
  0.00000000E+00  0.00000000E+00  0.00000000E+00
  0.00000000E+00  0.00000000E+00  0.00000000E+00
  0.00000000E+00  0.00000000E+00  0.00000000E+00
  0.00000000E+00  0.00000000E+00  0.00000000E+00
  0.00000000E+00  0.00000000E+00  0.00000000E+00
  0.00000000E+00  0.00000000E+00  0.00000000E+00
  0.00000000E+00  0.00000000E+00  0.00000000E+00
  0.00000000E+00  0.00000000E+00  0.00000000E+00
  0.00000000E+00  0.00000000E+00  0.00000000E+00
  0.00000000E+00  0.00000000E+00  0.00000000E+00
  0.00000000E+00  0.00000000E+00  0.00000000E+00
  0.00000000E+00  0.00000000E+00  0.00000000E+00
  0.00000000E+00  0.00000000E+00  0.00000000E+00
  0.00000000E+00  0.00000000E+00  0.00000000E+00
  0.00000000E+00  0.00000000E+00  0.00000000E+00
  0.00000000E+00  0.00000000E+00  0.00000000E+00
  0.00000000E+00  0.00000000E+00  0.00000000E+00
