Au-Pt-H                                 
   1.00000000000000     
     8.8135128021000000    0.0000000000000000    0.0000000000000000
     4.4067569092000003    7.6327256898000000    0.0000000000000000
     0.0000000000000000    0.0000000000000000   22.1962032317999984
   Au   Pt   H 
    35     1     1
Selective dynamics
Direct
  0.0000000000000000  0.0000000000000000  0.2378956379999977   F   F   F
  0.3333333429999996  0.0000000000000000  0.2378956379999977   F   F   F
  0.6666666870000029  0.0000000000000000  0.2378956379999977   F   F   F
  0.0000000000000000  0.3333333429999996  0.2378956379999977   F   F   F
  0.3333333129999971  0.3333333429999996  0.2378956379999977   F   F   F
  0.6666666870000029  0.3333333429999996  0.2378956379999977   F   F   F
  0.0000000000000000  0.6666666870000029  0.2378956379999977   F   F   F
  0.3333333429999996  0.6666666870000029  0.2378956379999977   F   F   F
  0.6666666269999979  0.6666666870000029  0.2378956379999977   F   F   F
  0.1111111190000003  0.1111111120000032  0.3459652069999990   F   F   F
  0.4444444180000033  0.1111111120000032  0.3459652069999990   F   F   F
  0.7777777909999983  0.1111111120000032  0.3459652069999990   F   F   F
  0.1111111270000009  0.4444444479999987  0.3459652069999990   F   F   F
  0.4444444780000012  0.4444444479999987  0.3459652069999990   F   F   F
  0.7777777310000005  0.4444444479999987  0.3459652069999990   F   F   F
  0.1111110900000014  0.7777777909999983  0.3459652069999990   F   F   F
  0.4444444479999987  0.7777777909999983  0.3459652069999990   F   F   F
  0.7777778510000033  0.7777777909999983  0.3459652069999990   F   F   F
  0.8888281781493674  0.2223436597012665  0.4538315203787064   F   F   F
  0.2214459347086972  0.2214459197086995  0.4527008606368454   F   F   F
  0.5571081905825963  0.2214459197086995  0.4527008606368454   F   F   F
  0.8880668269912633  0.5559666165043566  0.4535330131345603   F   F   F
  0.2214458897086971  0.5571081905825963  0.4527008606368454   F   F   F
  0.5559666165043566  0.5559666165043566  0.4535330131345603   F   F   F
  0.8888281781493674  0.8888281781493674  0.4538315203787064   F   F   F
  0.2223436897012689  0.8888281781493674  0.4538315203787064   F   F   F
  0.5559665565043588  0.8880668269912633  0.4535330131345603   F   F   F
  0.0000000000000000  0.0000000000000000  0.5631165864137202   F   F   F
  0.3334567551756891  0.0020607503636896  0.5628516943303623   F   F   F
  0.6644825244606238  0.0020607503636896  0.5628516943303623   F   F   F
  0.0020607503636896  0.3334567551756891  0.5628516943303623   F   F   F
  0.6644825244606238  0.3334567551756891  0.5628516943303623   F   F   F
  0.0020607503636896  0.6644825244606238  0.5628516943303623   F   F   F
  0.3334567551756891  0.6644825244606238  0.5628516943303623   F   F   F
  0.6666666269999979  0.6666666870000029  0.5630062238046278   F   F   F
  0.3333333129999971  0.3333333429999996  0.5540662589369703   F   F   F
  0.3333333129999971  0.3333333429999996  0.6247166181814450   T   T   T
 
  0.00000000E+00  0.00000000E+00  0.00000000E+00
  0.00000000E+00  0.00000000E+00  0.00000000E+00
  0.00000000E+00  0.00000000E+00  0.00000000E+00
  0.00000000E+00  0.00000000E+00  0.00000000E+00
  0.00000000E+00  0.00000000E+00  0.00000000E+00
  0.00000000E+00  0.00000000E+00  0.00000000E+00
  0.00000000E+00  0.00000000E+00  0.00000000E+00
  0.00000000E+00  0.00000000E+00  0.00000000E+00
  0.00000000E+00  0.00000000E+00  0.00000000E+00
  0.00000000E+00  0.00000000E+00  0.00000000E+00
  0.00000000E+00  0.00000000E+00  0.00000000E+00
  0.00000000E+00  0.00000000E+00  0.00000000E+00
  0.00000000E+00  0.00000000E+00  0.00000000E+00
  0.00000000E+00  0.00000000E+00  0.00000000E+00
  0.00000000E+00  0.00000000E+00  0.00000000E+00
  0.00000000E+00  0.00000000E+00  0.00000000E+00
  0.00000000E+00  0.00000000E+00  0.00000000E+00
  0.00000000E+00  0.00000000E+00  0.00000000E+00
  0.00000000E+00  0.00000000E+00  0.00000000E+00
  0.00000000E+00  0.00000000E+00  0.00000000E+00
  0.00000000E+00  0.00000000E+00  0.00000000E+00
  0.00000000E+00  0.00000000E+00  0.00000000E+00
  0.00000000E+00  0.00000000E+00  0.00000000E+00
  0.00000000E+00  0.00000000E+00  0.00000000E+00
  0.00000000E+00  0.00000000E+00  0.00000000E+00
  0.00000000E+00  0.00000000E+00  0.00000000E+00
  0.00000000E+00  0.00000000E+00  0.00000000E+00
  0.00000000E+00  0.00000000E+00  0.00000000E+00
  0.00000000E+00  0.00000000E+00  0.00000000E+00
  0.00000000E+00  0.00000000E+00  0.00000000E+00
  0.00000000E+00  0.00000000E+00  0.00000000E+00
  0.00000000E+00  0.00000000E+00  0.00000000E+00
  0.00000000E+00  0.00000000E+00  0.00000000E+00
  0.00000000E+00  0.00000000E+00  0.00000000E+00
  0.00000000E+00  0.00000000E+00  0.00000000E+00
  0.00000000E+00  0.00000000E+00  0.00000000E+00
  0.00000000E+00  0.00000000E+00  0.00000000E+00
