Cu-Mo-COH                               
   1.00000000000000     
     7.6967864037000000    0.0000000000000000    0.0000000000000000
     3.8483927580000001    6.6656128092999998    0.0000000000000000
     0.0000000000000000    0.0000000000000000   26.1310625667187750
   Cu   Mo   C    O    H 
    35     1     1     1     1
Selective dynamics
Direct
  0.0000000000000000  0.0000000000000000  0.2055622356350710   F   F   F
  0.3333333429999996  0.0000000000000000  0.2055622356350710   F   F   F
  0.6666666870000029  0.0000000000000000  0.2055622356350710   F   F   F
  0.0000000000000000  0.3333333429999996  0.2055622356350710   F   F   F
  0.3333333129999971  0.3333333429999996  0.2055622356350710   F   F   F
  0.6666666870000029  0.3333333429999996  0.2055622356350710   F   F   F
  0.0000000000000000  0.6666666870000029  0.2055622356350710   F   F   F
  0.3333333730000021  0.6666666870000029  0.2055622356350710   F   F   F
  0.6666666269999979  0.6666666870000029  0.2055622356350710   F   F   F
  0.1111111190000003  0.1111111120000032  0.2857273750003415   F   F   F
  0.4444444180000033  0.1111111120000032  0.2857273750003415   F   F   F
  0.7777777909999983  0.1111111120000032  0.2857273750003415   F   F   F
  0.1111111190000003  0.4444444479999987  0.2857273750003415   F   F   F
  0.4444444780000012  0.4444444479999987  0.2857273750003415   F   F   F
  0.7777777310000005  0.4444444479999987  0.2857273750003415   F   F   F
  0.1111111120000032  0.7777777310000005  0.2857273750003415   F   F   F
  0.4444444780000012  0.7777777310000005  0.2857273750003415   F   F   F
  0.7777778510000033  0.7777777310000005  0.2857273750003415   F   F   F
  0.8888865064940106  0.2222270030119873  0.3655165447593234   F   F   F
  0.2218165651380630  0.2218165501380582  0.3653231457453998   F   F   F
  0.5563669297238789  0.2218165501380582  0.3653231457453998   F   F   F
  0.8883943481585632  0.5558027959207195  0.3661610946316713   F   F   F
  0.2218165351380605  0.5563668697238811  0.3653231457453998   F   F   F
  0.5558028559207173  0.5558027959207195  0.3661610946316713   F   F   F
  0.8888865064940106  0.8888865064940106  0.3655165447593234   F   F   F
  0.2222270180119779  0.8888865064940106  0.3655165447593234   F   F   F
  0.5558027959207195  0.8883943481585632  0.3661610946316713   F   F   F
  0.0000000000000000  0.0000000000000000  0.4457037721951380   F   F   F
  0.3330568942196095  0.9981750936541971  0.4467294089584612   F   F   F
  0.6687680421261888  0.9981750936541971  0.4467294089584612   F   F   F
  0.9981750936541971  0.3330568942196095  0.4467294089584612   F   F   F
  0.6687680421261888  0.3330568942196095  0.4467294089584612   F   F   F
  0.9981750936541971  0.6687680421261888  0.4467294089584612   F   F   F
  0.3330569242196120  0.6687680421261888  0.4467294089584612   F   F   F
  0.6666666269999979  0.6666666870000029  0.4462040128908882   F   F   F
  0.3333333129999971  0.3333333429999996  0.4458260484048608   F   F   F
  0.3333333129999971  0.3333333429999996  0.5165514494771041   T   T   T
  0.3333333129999971  0.3333333429999996  0.5650783917054786   T   T   T
  0.3333333129999971  0.3333333429999996  0.6016627776854510   T   T   T
 
  0.00000000E+00  0.00000000E+00  0.00000000E+00
  0.00000000E+00  0.00000000E+00  0.00000000E+00
  0.00000000E+00  0.00000000E+00  0.00000000E+00
  0.00000000E+00  0.00000000E+00  0.00000000E+00
  0.00000000E+00  0.00000000E+00  0.00000000E+00
  0.00000000E+00  0.00000000E+00  0.00000000E+00
  0.00000000E+00  0.00000000E+00  0.00000000E+00
  0.00000000E+00  0.00000000E+00  0.00000000E+00
  0.00000000E+00  0.00000000E+00  0.00000000E+00
  0.00000000E+00  0.00000000E+00  0.00000000E+00
  0.00000000E+00  0.00000000E+00  0.00000000E+00
  0.00000000E+00  0.00000000E+00  0.00000000E+00
  0.00000000E+00  0.00000000E+00  0.00000000E+00
  0.00000000E+00  0.00000000E+00  0.00000000E+00
  0.00000000E+00  0.00000000E+00  0.00000000E+00
  0.00000000E+00  0.00000000E+00  0.00000000E+00
  0.00000000E+00  0.00000000E+00  0.00000000E+00
  0.00000000E+00  0.00000000E+00  0.00000000E+00
  0.00000000E+00  0.00000000E+00  0.00000000E+00
  0.00000000E+00  0.00000000E+00  0.00000000E+00
  0.00000000E+00  0.00000000E+00  0.00000000E+00
  0.00000000E+00  0.00000000E+00  0.00000000E+00
  0.00000000E+00  0.00000000E+00  0.00000000E+00
  0.00000000E+00  0.00000000E+00  0.00000000E+00
  0.00000000E+00  0.00000000E+00  0.00000000E+00
  0.00000000E+00  0.00000000E+00  0.00000000E+00
  0.00000000E+00  0.00000000E+00  0.00000000E+00
  0.00000000E+00  0.00000000E+00  0.00000000E+00
  0.00000000E+00  0.00000000E+00  0.00000000E+00
  0.00000000E+00  0.00000000E+00  0.00000000E+00
  0.00000000E+00  0.00000000E+00  0.00000000E+00
  0.00000000E+00  0.00000000E+00  0.00000000E+00
  0.00000000E+00  0.00000000E+00  0.00000000E+00
  0.00000000E+00  0.00000000E+00  0.00000000E+00
  0.00000000E+00  0.00000000E+00  0.00000000E+00
  0.00000000E+00  0.00000000E+00  0.00000000E+00
  0.00000000E+00  0.00000000E+00  0.00000000E+00
  0.00000000E+00  0.00000000E+00  0.00000000E+00
  0.00000000E+00  0.00000000E+00  0.00000000E+00
