Ag-Mn-N2                                
   1.00000000000000     
     8.7913665770999998    0.0000000000000000    0.0000000000000000
     4.3956832885999999    7.6135467898000000    0.0000000000000000
     0.0000000000000000    0.0000000000000000   24.0060125285072843
   Ag   Mn   N 
    35     1     2
Selective dynamics
Direct
  0.0000000000000000  0.0000000000000000  0.2200360486982476   F   F   F
  0.3333333129999971  0.0000000000000000  0.2200360486982476   F   F   F
  0.6666666269999979  0.0000000000000000  0.2200360486982476   F   F   F
  0.0000000000000000  0.3333333429999996  0.2200360486982476   F   F   F
  0.3333333129999971  0.3333333429999996  0.2200360486982476   F   F   F
  0.6666666870000029  0.3333333429999996  0.2200360486982476   F   F   F
  0.0000000000000000  0.6666666870000029  0.2200360486982476   F   F   F
  0.3333333129999971  0.6666666870000029  0.2200360486982476   F   F   F
  0.6666666269999979  0.6666666870000029  0.2200360486982476   F   F   F
  0.1111111040000026  0.1111111120000032  0.3197072123915774   F   F   F
  0.4444444479999987  0.1111111120000032  0.3197072123915774   F   F   F
  0.7777777909999983  0.1111111120000032  0.3197072123915774   F   F   F
  0.1111110969999984  0.4444444479999987  0.3197072123915774   F   F   F
  0.4444444180000033  0.4444444479999987  0.3197072123915774   F   F   F
  0.7777777909999983  0.4444444479999987  0.3197072123915774   F   F   F
  0.1111111040000026  0.7777777909999983  0.3197072123915774   F   F   F
  0.4444444479999987  0.7777777909999983  0.3197072123915774   F   F   F
  0.7777777909999983  0.7777777909999983  0.3197072123915774   F   F   F
  0.8887148833031517  0.2225702493936907  0.4191197293876670   F   F   F
  0.2230661282861206  0.2230661432861183  0.4182431812783207   F   F   F
  0.5538676834277609  0.2230661432861183  0.4182431812783207   F   F   F
  0.8884839643255233  0.5557580478372373  0.4187969973489416   F   F   F
  0.2230661432861183  0.5538677434277588  0.4182431812783207   F   F   F
  0.5557580478372373  0.5557580478372373  0.4187969973489416   F   F   F
  0.8887148833031517  0.8887148833031517  0.4191197293876670   F   F   F
  0.2225702193936883  0.8887148833031517  0.4191197293876670   F   F   F
  0.5557579878372394  0.8884839643255233  0.4187969973489416   F   F   F
  0.0000000000000000  0.0000000000000000  0.5175938337698085   F   F   F
  0.3332766827137590  0.0078796074390297  0.5181430926647508   F   F   F
  0.6588436498472134  0.0078796074390297  0.5181430926647508   F   F   F
  0.0078796074390297  0.3332767127137615  0.5181430926647508   F   F   F
  0.6588437098472113  0.3332767127137615  0.5181430926647508   F   F   F
  0.0078796074390297  0.6588437098472113  0.5181430926647508   F   F   F
  0.3332766827137590  0.6588437098472113  0.5181430926647508   F   F   F
  0.6666666269999979  0.6666666870000029  0.5175667902662582   F   F   F
  0.3333333129999971  0.3333333429999996  0.5069432788844708   F   F   F
  0.2660098873435714  0.3328051184109668  0.5859641572735086   T   T   T
  0.4011849632454627  0.3328051184109668  0.5859641572735086   T   T   T
 
  0.00000000E+00  0.00000000E+00  0.00000000E+00
  0.00000000E+00  0.00000000E+00  0.00000000E+00
  0.00000000E+00  0.00000000E+00  0.00000000E+00
  0.00000000E+00  0.00000000E+00  0.00000000E+00
  0.00000000E+00  0.00000000E+00  0.00000000E+00
  0.00000000E+00  0.00000000E+00  0.00000000E+00
  0.00000000E+00  0.00000000E+00  0.00000000E+00
  0.00000000E+00  0.00000000E+00  0.00000000E+00
  0.00000000E+00  0.00000000E+00  0.00000000E+00
  0.00000000E+00  0.00000000E+00  0.00000000E+00
  0.00000000E+00  0.00000000E+00  0.00000000E+00
  0.00000000E+00  0.00000000E+00  0.00000000E+00
  0.00000000E+00  0.00000000E+00  0.00000000E+00
  0.00000000E+00  0.00000000E+00  0.00000000E+00
  0.00000000E+00  0.00000000E+00  0.00000000E+00
  0.00000000E+00  0.00000000E+00  0.00000000E+00
  0.00000000E+00  0.00000000E+00  0.00000000E+00
  0.00000000E+00  0.00000000E+00  0.00000000E+00
  0.00000000E+00  0.00000000E+00  0.00000000E+00
  0.00000000E+00  0.00000000E+00  0.00000000E+00
  0.00000000E+00  0.00000000E+00  0.00000000E+00
  0.00000000E+00  0.00000000E+00  0.00000000E+00
  0.00000000E+00  0.00000000E+00  0.00000000E+00
  0.00000000E+00  0.00000000E+00  0.00000000E+00
  0.00000000E+00  0.00000000E+00  0.00000000E+00
  0.00000000E+00  0.00000000E+00  0.00000000E+00
  0.00000000E+00  0.00000000E+00  0.00000000E+00
  0.00000000E+00  0.00000000E+00  0.00000000E+00
  0.00000000E+00  0.00000000E+00  0.00000000E+00
  0.00000000E+00  0.00000000E+00  0.00000000E+00
  0.00000000E+00  0.00000000E+00  0.00000000E+00
  0.00000000E+00  0.00000000E+00  0.00000000E+00
  0.00000000E+00  0.00000000E+00  0.00000000E+00
  0.00000000E+00  0.00000000E+00  0.00000000E+00
  0.00000000E+00  0.00000000E+00  0.00000000E+00
  0.00000000E+00  0.00000000E+00  0.00000000E+00
  0.00000000E+00  0.00000000E+00  0.00000000E+00
  0.00000000E+00  0.00000000E+00  0.00000000E+00
