Au-Mn-H2O                               
   1.00000000000000     
     8.8135128021000000    0.0000000000000000    0.0000000000000000
     4.4067569092000003    7.6327256898000000    0.0000000000000000
     0.0000000000000000    0.0000000000000000   24.7442300385987473
   Au   Mn   H    O 
    35     1     2     1
Selective dynamics
Direct
  0.0000000000000000  0.0000000000000000  0.2133984335244890   F   F   F
  0.3333333429999996  0.0000000000000000  0.2133984335244890   F   F   F
  0.6666666870000029  0.0000000000000000  0.2133984335244890   F   F   F
  0.0000000000000000  0.3333333429999996  0.2133984335244890   F   F   F
  0.3333333129999971  0.3333333429999996  0.2133984335244890   F   F   F
  0.6666666870000029  0.3333333429999996  0.2133984335244890   F   F   F
  0.0000000000000000  0.6666666870000029  0.2133984335244890   F   F   F
  0.3333333429999996  0.6666666870000029  0.2133984335244890   F   F   F
  0.6666666269999979  0.6666666870000029  0.2133984335244890   F   F   F
  0.1111111190000003  0.1111111120000032  0.3103395835604914   F   F   F
  0.4444444180000033  0.1111111120000032  0.3103395835604914   F   F   F
  0.7777777909999983  0.1111111120000032  0.3103395835604914   F   F   F
  0.1111111270000009  0.4444444479999987  0.3103395835604914   F   F   F
  0.4444444780000012  0.4444444479999987  0.3103395835604914   F   F   F
  0.7777777310000005  0.4444444479999987  0.3103395835604914   F   F   F
  0.1111110900000014  0.7777777909999983  0.3103395835604914   F   F   F
  0.4444444479999987  0.7777777909999983  0.3103395835604914   F   F   F
  0.7777778510000033  0.7777777909999983  0.3103395835604914   F   F   F
  0.8888975383637430  0.2222049392725012  0.4071570762220986   F   F   F
  0.2233740122997787  0.2233739972997810  0.4061512432154899   F   F   F
  0.5532520354004404  0.2233739972997810  0.4061512432154899   F   F   F
  0.8864637922595335  0.5567681338702286  0.4064833711977727   F   F   F
  0.2233739672997785  0.5532520354004404  0.4061512432154899   F   F   F
  0.5567681338702286  0.5567681338702286  0.4064833711977727   F   F   F
  0.8888975383637430  0.8888975383637430  0.4071570762220986   F   F   F
  0.2222049692724966  0.8888975383637430  0.4071570762220986   F   F   F
  0.5567680738702308  0.8864637922595335  0.4064833711977727   F   F   F
  0.0000000000000000  0.0000000000000000  0.5046727905243387   F   F   F
  0.3335216666197169  0.0102759252395614  0.5041355861504826   F   F   F
  0.6562024381407170  0.0102759252395614  0.5041355861504826   F   F   F
  0.0102759252395614  0.3335216666197169  0.5041355861504826   F   F   F
  0.6562024381407170  0.3335216666197169  0.5041355861504826   F   F   F
  0.0102759252395614  0.6562024381407170  0.5041355861504826   F   F   F
  0.3335216666197169  0.6562024381407170  0.5041355861504826   F   F   F
  0.6666666269999979  0.6666666870000029  0.5049828335378734   F   F   F
  0.3333333129999971  0.3333333429999996  0.4917646683508679   F   F   F
  0.2792422245816777  0.2625064987802919  0.5854364787871036   T   T   T
  0.4572968500688380  0.2628912795325721  0.5855466177810492   T   T   T
  0.3322274907082426  0.3346109479026320  0.5768613674085015   T   T   T
 
  0.00000000E+00  0.00000000E+00  0.00000000E+00
  0.00000000E+00  0.00000000E+00  0.00000000E+00
  0.00000000E+00  0.00000000E+00  0.00000000E+00
  0.00000000E+00  0.00000000E+00  0.00000000E+00
  0.00000000E+00  0.00000000E+00  0.00000000E+00
  0.00000000E+00  0.00000000E+00  0.00000000E+00
  0.00000000E+00  0.00000000E+00  0.00000000E+00
  0.00000000E+00  0.00000000E+00  0.00000000E+00
  0.00000000E+00  0.00000000E+00  0.00000000E+00
  0.00000000E+00  0.00000000E+00  0.00000000E+00
  0.00000000E+00  0.00000000E+00  0.00000000E+00
  0.00000000E+00  0.00000000E+00  0.00000000E+00
  0.00000000E+00  0.00000000E+00  0.00000000E+00
  0.00000000E+00  0.00000000E+00  0.00000000E+00
  0.00000000E+00  0.00000000E+00  0.00000000E+00
  0.00000000E+00  0.00000000E+00  0.00000000E+00
  0.00000000E+00  0.00000000E+00  0.00000000E+00
  0.00000000E+00  0.00000000E+00  0.00000000E+00
  0.00000000E+00  0.00000000E+00  0.00000000E+00
  0.00000000E+00  0.00000000E+00  0.00000000E+00
  0.00000000E+00  0.00000000E+00  0.00000000E+00
  0.00000000E+00  0.00000000E+00  0.00000000E+00
  0.00000000E+00  0.00000000E+00  0.00000000E+00
  0.00000000E+00  0.00000000E+00  0.00000000E+00
  0.00000000E+00  0.00000000E+00  0.00000000E+00
  0.00000000E+00  0.00000000E+00  0.00000000E+00
  0.00000000E+00  0.00000000E+00  0.00000000E+00
  0.00000000E+00  0.00000000E+00  0.00000000E+00
  0.00000000E+00  0.00000000E+00  0.00000000E+00
  0.00000000E+00  0.00000000E+00  0.00000000E+00
  0.00000000E+00  0.00000000E+00  0.00000000E+00
  0.00000000E+00  0.00000000E+00  0.00000000E+00
  0.00000000E+00  0.00000000E+00  0.00000000E+00
  0.00000000E+00  0.00000000E+00  0.00000000E+00
  0.00000000E+00  0.00000000E+00  0.00000000E+00
  0.00000000E+00  0.00000000E+00  0.00000000E+00
  0.00000000E+00  0.00000000E+00  0.00000000E+00
  0.00000000E+00  0.00000000E+00  0.00000000E+00
  0.00000000E+00  0.00000000E+00  0.00000000E+00
