Ag-Ta-N2                                
   1.00000000000000     
     8.7913665770999998    0.0000000000000000    0.0000000000000000
     4.3956832885999999    7.6135467898000000    0.0000000000000000
     0.0000000000000000    0.0000000000000000   24.0462254425482769
   Ag   Ta   N 
    35     1     2
Selective dynamics
Direct
  0.0000000000000000  0.0000000000000000  0.2196680786509972   F   F   F
  0.3333333129999971  0.0000000000000000  0.2196680786509972   F   F   F
  0.6666666269999979  0.0000000000000000  0.2196680786509972   F   F   F
  0.0000000000000000  0.3333333429999996  0.2196680786509972   F   F   F
  0.3333333129999971  0.3333333429999996  0.2196680786509972   F   F   F
  0.6666666870000029  0.3333333429999996  0.2196680786509972   F   F   F
  0.0000000000000000  0.6666666870000029  0.2196680786509972   F   F   F
  0.3333333129999971  0.6666666870000029  0.2196680786509972   F   F   F
  0.6666666269999979  0.6666666870000029  0.2196680786509972   F   F   F
  0.1111111040000026  0.1111111120000032  0.3191725605527296   F   F   F
  0.4444444479999987  0.1111111120000032  0.3191725605527296   F   F   F
  0.7777777909999983  0.1111111120000032  0.3191725605527296   F   F   F
  0.1111110969999984  0.4444444479999987  0.3191725605527296   F   F   F
  0.4444444180000033  0.4444444479999987  0.3191725605527296   F   F   F
  0.7777777909999983  0.4444444479999987  0.3191725605527296   F   F   F
  0.1111111040000026  0.7777777909999983  0.3191725605527296   F   F   F
  0.4444444479999987  0.7777777909999983  0.3191725605527296   F   F   F
  0.7777777909999983  0.7777777909999983  0.3191725605527296   F   F   F
  0.8887012747242977  0.2225974665513988  0.4187514305071502   F   F   F
  0.2215522205225398  0.2215522355225374  0.4168584713003298   F   F   F
  0.5568954989549226  0.2215522355225374  0.4168584713003298   F   F   F
  0.8883014322922733  0.5558493138538623  0.4187332485971922   F   F   F
  0.2215522355225374  0.5568955589549205  0.4168584713003298   F   F   F
  0.5558493138538623  0.5558493138538623  0.4187332485971922   F   F   F
  0.8887012747242977  0.8887012747242977  0.4187514305071502   F   F   F
  0.2225974365514034  0.8887012747242977  0.4187514305071502   F   F   F
  0.5558492538538573  0.8883014322922733  0.4187332485971922   F   F   F
  0.0000000000000000  0.0000000000000000  0.5180784914650971   F   F   F
  0.3335074893021215  0.0057435738034570  0.5198161788407205   F   F   F
  0.6607488768944094  0.0057435738034570  0.5198161788407205   F   F   F
  0.0057435738034570  0.3335075193021169  0.5198161788407205   F   F   F
  0.6607489368944073  0.3335075193021169  0.5198161788407205   F   F   F
  0.0057435738034570  0.6607489368944073  0.5198161788407205   F   F   F
  0.3335074893021215  0.6607489368944073  0.5198161788407205   F   F   F
  0.6666666269999979  0.6666666870000029  0.5186283314421090   F   F   F
  0.3333333129999971  0.3333333429999996  0.5084506893504113   F   F   F
  0.2626966069732707  0.3382129591586445  0.5961666656314820   T   T   T
  0.3990904028680861  0.3382129591586445  0.5961666656314820   T   T   T
 
  0.00000000E+00  0.00000000E+00  0.00000000E+00
  0.00000000E+00  0.00000000E+00  0.00000000E+00
  0.00000000E+00  0.00000000E+00  0.00000000E+00
  0.00000000E+00  0.00000000E+00  0.00000000E+00
  0.00000000E+00  0.00000000E+00  0.00000000E+00
  0.00000000E+00  0.00000000E+00  0.00000000E+00
  0.00000000E+00  0.00000000E+00  0.00000000E+00
  0.00000000E+00  0.00000000E+00  0.00000000E+00
  0.00000000E+00  0.00000000E+00  0.00000000E+00
  0.00000000E+00  0.00000000E+00  0.00000000E+00
  0.00000000E+00  0.00000000E+00  0.00000000E+00
  0.00000000E+00  0.00000000E+00  0.00000000E+00
  0.00000000E+00  0.00000000E+00  0.00000000E+00
  0.00000000E+00  0.00000000E+00  0.00000000E+00
  0.00000000E+00  0.00000000E+00  0.00000000E+00
  0.00000000E+00  0.00000000E+00  0.00000000E+00
  0.00000000E+00  0.00000000E+00  0.00000000E+00
  0.00000000E+00  0.00000000E+00  0.00000000E+00
  0.00000000E+00  0.00000000E+00  0.00000000E+00
  0.00000000E+00  0.00000000E+00  0.00000000E+00
  0.00000000E+00  0.00000000E+00  0.00000000E+00
  0.00000000E+00  0.00000000E+00  0.00000000E+00
  0.00000000E+00  0.00000000E+00  0.00000000E+00
  0.00000000E+00  0.00000000E+00  0.00000000E+00
  0.00000000E+00  0.00000000E+00  0.00000000E+00
  0.00000000E+00  0.00000000E+00  0.00000000E+00
  0.00000000E+00  0.00000000E+00  0.00000000E+00
  0.00000000E+00  0.00000000E+00  0.00000000E+00
  0.00000000E+00  0.00000000E+00  0.00000000E+00
  0.00000000E+00  0.00000000E+00  0.00000000E+00
  0.00000000E+00  0.00000000E+00  0.00000000E+00
  0.00000000E+00  0.00000000E+00  0.00000000E+00
  0.00000000E+00  0.00000000E+00  0.00000000E+00
  0.00000000E+00  0.00000000E+00  0.00000000E+00
  0.00000000E+00  0.00000000E+00  0.00000000E+00
  0.00000000E+00  0.00000000E+00  0.00000000E+00
  0.00000000E+00  0.00000000E+00  0.00000000E+00
  0.00000000E+00  0.00000000E+00  0.00000000E+00
