Au-Pd-O2                                
   1.00000000000000     
     8.8135128021000000    0.0000000000000000    0.0000000000000000
     4.4067569092000003    7.6327256898000000    0.0000000000000000
     0.0000000000000000    0.0000000000000000   24.3134088421207828
   Au   Pd   O 
    35     1     2
Selective dynamics
Direct
  0.0000000000000000  0.0000000000000000  0.2171797448599193   F   F   F
  0.3333333429999996  0.0000000000000000  0.2171797448599193   F   F   F
  0.6666666870000029  0.0000000000000000  0.2171797448599193   F   F   F
  0.0000000000000000  0.3333333429999996  0.2171797448599193   F   F   F
  0.3333333129999971  0.3333333429999996  0.2171797448599193   F   F   F
  0.6666666870000029  0.3333333429999996  0.2171797448599193   F   F   F
  0.0000000000000000  0.6666666870000029  0.2171797448599193   F   F   F
  0.3333333429999996  0.6666666870000029  0.2171797448599193   F   F   F
  0.6666666269999979  0.6666666870000029  0.2171797448599193   F   F   F
  0.1111111190000003  0.1111111120000032  0.3158386426012072   F   F   F
  0.4444444180000033  0.1111111120000032  0.3158386426012072   F   F   F
  0.7777777909999983  0.1111111120000032  0.3158386426012072   F   F   F
  0.1111111270000009  0.4444444479999987  0.3158386426012072   F   F   F
  0.4444444780000012  0.4444444479999987  0.3158386426012072   F   F   F
  0.7777777310000005  0.4444444479999987  0.3158386426012072   F   F   F
  0.1111110900000014  0.7777777909999983  0.3158386426012072   F   F   F
  0.4444444479999987  0.7777777909999983  0.3158386426012072   F   F   F
  0.7777778510000033  0.7777777909999983  0.3158386426012072   F   F   F
  0.8890967813989690  0.2218064532020421  0.4138789629094930   F   F   F
  0.2221387676135578  0.2221387526135601  0.4142051908444984   F   F   F
  0.5557225247728823  0.2221387526135601  0.4142051908444984   F   F   F
  0.8888231310370074  0.5555884644815023  0.4142009727994704   F   F   F
  0.2221387226135576  0.5557225247728823  0.4142051908444984   F   F   F
  0.5555884644815023  0.5555884644815023  0.4142009727994704   F   F   F
  0.8890967813989690  0.8890967813989690  0.4138789629094930   F   F   F
  0.2218064832020374  0.8890967813989690  0.4138789629094930   F   F   F
  0.5555884044814974  0.8888231310370074  0.4142009727994704   F   F   F
  0.0000000000000000  0.0000000000000000  0.5138557806949891   F   F   F
  0.3334469292856070  0.0008666452400874  0.5137728066917333   F   F   F
  0.6656864554743080  0.0008666452400874  0.5137728066917333   F   F   F
  0.0008666452400874  0.3334469292856070  0.5137728066917333   F   F   F
  0.6656864554743080  0.3334469292856070  0.5137728066917333   F   F   F
  0.0008666452400874  0.6656864554743080  0.5137728066917333   F   F   F
  0.3334469292856070  0.6656864554743080  0.5137728066917333   F   F   F
  0.6666666269999979  0.6666666870000029  0.5140283889871498   F   F   F
  0.3333333129999971  0.3333333429999996  0.5075764834828931   F   F   F
  0.2585246098070025  0.3333168047071920  0.5954996817656886   T   T   T
  0.4081585544858136  0.3333168047071920  0.5954996817656886   T   T   T
 
  0.00000000E+00  0.00000000E+00  0.00000000E+00
  0.00000000E+00  0.00000000E+00  0.00000000E+00
  0.00000000E+00  0.00000000E+00  0.00000000E+00
  0.00000000E+00  0.00000000E+00  0.00000000E+00
  0.00000000E+00  0.00000000E+00  0.00000000E+00
  0.00000000E+00  0.00000000E+00  0.00000000E+00
  0.00000000E+00  0.00000000E+00  0.00000000E+00
  0.00000000E+00  0.00000000E+00  0.00000000E+00
  0.00000000E+00  0.00000000E+00  0.00000000E+00
  0.00000000E+00  0.00000000E+00  0.00000000E+00
  0.00000000E+00  0.00000000E+00  0.00000000E+00
  0.00000000E+00  0.00000000E+00  0.00000000E+00
  0.00000000E+00  0.00000000E+00  0.00000000E+00
  0.00000000E+00  0.00000000E+00  0.00000000E+00
  0.00000000E+00  0.00000000E+00  0.00000000E+00
  0.00000000E+00  0.00000000E+00  0.00000000E+00
  0.00000000E+00  0.00000000E+00  0.00000000E+00
  0.00000000E+00  0.00000000E+00  0.00000000E+00
  0.00000000E+00  0.00000000E+00  0.00000000E+00
  0.00000000E+00  0.00000000E+00  0.00000000E+00
  0.00000000E+00  0.00000000E+00  0.00000000E+00
  0.00000000E+00  0.00000000E+00  0.00000000E+00
  0.00000000E+00  0.00000000E+00  0.00000000E+00
  0.00000000E+00  0.00000000E+00  0.00000000E+00
  0.00000000E+00  0.00000000E+00  0.00000000E+00
  0.00000000E+00  0.00000000E+00  0.00000000E+00
  0.00000000E+00  0.00000000E+00  0.00000000E+00
  0.00000000E+00  0.00000000E+00  0.00000000E+00
  0.00000000E+00  0.00000000E+00  0.00000000E+00
  0.00000000E+00  0.00000000E+00  0.00000000E+00
  0.00000000E+00  0.00000000E+00  0.00000000E+00
  0.00000000E+00  0.00000000E+00  0.00000000E+00
  0.00000000E+00  0.00000000E+00  0.00000000E+00
  0.00000000E+00  0.00000000E+00  0.00000000E+00
  0.00000000E+00  0.00000000E+00  0.00000000E+00
  0.00000000E+00  0.00000000E+00  0.00000000E+00
  0.00000000E+00  0.00000000E+00  0.00000000E+00
  0.00000000E+00  0.00000000E+00  0.00000000E+00
