Au-Ni-COH                               
   1.00000000000000     
     8.8135128021000000    0.0000000000000000    0.0000000000000000
     4.4067569092000003    7.6327256898000000    0.0000000000000000
     0.0000000000000000    0.0000000000000000   26.7549911976187857
   Au   Ni   C    O    H 
    35     1     1     1     1
Selective dynamics
Direct
  0.0000000000000000  0.0000000000000000  0.1973605556437903   F   F   F
  0.3333333429999996  0.0000000000000000  0.1973605556437903   F   F   F
  0.6666666870000029  0.0000000000000000  0.1973605556437903   F   F   F
  0.0000000000000000  0.3333333429999996  0.1973605556437903   F   F   F
  0.3333333129999971  0.3333333429999996  0.1973605556437903   F   F   F
  0.6666666870000029  0.3333333429999996  0.1973605556437903   F   F   F
  0.0000000000000000  0.6666666870000029  0.1973605556437903   F   F   F
  0.3333333429999996  0.6666666870000029  0.1973605556437903   F   F   F
  0.6666666269999979  0.6666666870000029  0.1973605556437903   F   F   F
  0.1111111190000003  0.1111111120000032  0.2870161305224883   F   F   F
  0.4444444180000033  0.1111111120000032  0.2870161305224883   F   F   F
  0.7777777909999983  0.1111111120000032  0.2870161305224883   F   F   F
  0.1111111270000009  0.4444444479999987  0.2870161305224883   F   F   F
  0.4444444780000012  0.4444444479999987  0.2870161305224883   F   F   F
  0.7777777310000005  0.4444444479999987  0.2870161305224883   F   F   F
  0.1111110900000014  0.7777777909999983  0.2870161305224883   F   F   F
  0.4444444479999987  0.7777777909999983  0.2870161305224883   F   F   F
  0.7777778510000033  0.7777777909999983  0.2870161305224883   F   F   F
  0.8890345716339993  0.2219308727320026  0.3763987840393170   F   F   F
  0.2228928792242115  0.2228928642242067  0.3759476090819476   F   F   F
  0.5542143015515677  0.2228928642242067  0.3759476090819476   F   F   F
  0.8875765664249329  0.5562117467875325  0.3759841577691816   F   F   F
  0.2228928342242114  0.5542143015515677  0.3759476090819476   F   F   F
  0.5562117467875325  0.5562117467875325  0.3759841577691816   F   F   F
  0.8890345716339993  0.8890345716339993  0.3763987840393170   F   F   F
  0.2219309027319980  0.8890345716339993  0.3763987840393170   F   F   F
  0.5562116867875275  0.8875765664249329  0.3759841577691816   F   F   F
  0.0000000000000000  0.0000000000000000  0.4667745073375187   F   F   F
  0.3336024962084423  0.0067737428625065  0.4656558403801512   F   F   F
  0.6596237909290608  0.0067737428625065  0.4656558403801512   F   F   F
  0.0067737428625065  0.3336024962084423  0.4656558403801512   F   F   F
  0.6596237909290608  0.3336024962084423  0.4656558403801512   F   F   F
  0.0067737428625065  0.6596237909290608  0.4656558403801512   F   F   F
  0.3336024962084423  0.6596237909290608  0.4656558403801512   F   F   F
  0.6666666269999979  0.6666666870000029  0.4669046978410805   F   F   F
  0.3333333129999971  0.3333333429999996  0.4545501436933108   F   F   F
  0.3333333129999971  0.3333333429999996  0.5171897268149124   T   T   T
  0.3333333129999971  0.3333333429999996  0.5636681564482942   T   T   T
  0.3333333129999971  0.3333333429999996  0.5997892360241295   T   T   T
 
  0.00000000E+00  0.00000000E+00  0.00000000E+00
  0.00000000E+00  0.00000000E+00  0.00000000E+00
  0.00000000E+00  0.00000000E+00  0.00000000E+00
  0.00000000E+00  0.00000000E+00  0.00000000E+00
  0.00000000E+00  0.00000000E+00  0.00000000E+00
  0.00000000E+00  0.00000000E+00  0.00000000E+00
  0.00000000E+00  0.00000000E+00  0.00000000E+00
  0.00000000E+00  0.00000000E+00  0.00000000E+00
  0.00000000E+00  0.00000000E+00  0.00000000E+00
  0.00000000E+00  0.00000000E+00  0.00000000E+00
  0.00000000E+00  0.00000000E+00  0.00000000E+00
  0.00000000E+00  0.00000000E+00  0.00000000E+00
  0.00000000E+00  0.00000000E+00  0.00000000E+00
  0.00000000E+00  0.00000000E+00  0.00000000E+00
  0.00000000E+00  0.00000000E+00  0.00000000E+00
  0.00000000E+00  0.00000000E+00  0.00000000E+00
  0.00000000E+00  0.00000000E+00  0.00000000E+00
  0.00000000E+00  0.00000000E+00  0.00000000E+00
  0.00000000E+00  0.00000000E+00  0.00000000E+00
  0.00000000E+00  0.00000000E+00  0.00000000E+00
  0.00000000E+00  0.00000000E+00  0.00000000E+00
  0.00000000E+00  0.00000000E+00  0.00000000E+00
  0.00000000E+00  0.00000000E+00  0.00000000E+00
  0.00000000E+00  0.00000000E+00  0.00000000E+00
  0.00000000E+00  0.00000000E+00  0.00000000E+00
  0.00000000E+00  0.00000000E+00  0.00000000E+00
  0.00000000E+00  0.00000000E+00  0.00000000E+00
  0.00000000E+00  0.00000000E+00  0.00000000E+00
  0.00000000E+00  0.00000000E+00  0.00000000E+00
  0.00000000E+00  0.00000000E+00  0.00000000E+00
  0.00000000E+00  0.00000000E+00  0.00000000E+00
  0.00000000E+00  0.00000000E+00  0.00000000E+00
  0.00000000E+00  0.00000000E+00  0.00000000E+00
  0.00000000E+00  0.00000000E+00  0.00000000E+00
  0.00000000E+00  0.00000000E+00  0.00000000E+00
  0.00000000E+00  0.00000000E+00  0.00000000E+00
  0.00000000E+00  0.00000000E+00  0.00000000E+00
  0.00000000E+00  0.00000000E+00  0.00000000E+00
  0.00000000E+00  0.00000000E+00  0.00000000E+00
