Ag-Ti-OH                                
   1.00000000000000     
     8.7913665770999998    0.0000000000000000    0.0000000000000000
     4.3956832885999999    7.6135467898000000    0.0000000000000000
     0.0000000000000000    0.0000000000000000   25.2479873362480873
   Ag   Ti   O    H 
    35     1     1     1
Selective dynamics
Direct
  0.0000000000000000  0.0000000000000000  0.2092122461654498   F   F   F
  0.3333333129999971  0.0000000000000000  0.2092122461654498   F   F   F
  0.6666666269999979  0.0000000000000000  0.2092122461654498   F   F   F
  0.0000000000000000  0.3333333429999996  0.2092122461654498   F   F   F
  0.3333333129999971  0.3333333429999996  0.2092122461654498   F   F   F
  0.6666666870000029  0.3333333429999996  0.2092122461654498   F   F   F
  0.0000000000000000  0.6666666870000029  0.2092122461654498   F   F   F
  0.3333333129999971  0.6666666870000029  0.2092122461654498   F   F   F
  0.6666666269999979  0.6666666870000029  0.2092122461654498   F   F   F
  0.1111111040000026  0.1111111120000032  0.3039804814504024   F   F   F
  0.4444444479999987  0.1111111120000032  0.3039804814504024   F   F   F
  0.7777777909999983  0.1111111120000032  0.3039804814504024   F   F   F
  0.1111110969999984  0.4444444479999987  0.3039804814504024   F   F   F
  0.4444444180000033  0.4444444479999987  0.3039804814504024   F   F   F
  0.7777777909999983  0.4444444479999987  0.3039804814504024   F   F   F
  0.1111111040000026  0.7777777909999983  0.3039804814504024   F   F   F
  0.4444444479999987  0.7777777909999983  0.3039804814504024   F   F   F
  0.7777777909999983  0.7777777909999983  0.3039804814504024   F   F   F
  0.8889653483856890  0.2220693192286092  0.3981087821295475   F   F   F
  0.2226089216950129  0.2226089366950106  0.3976932664383028   F   F   F
  0.5547820966099906  0.2226089366950106  0.3976932664383028   F   F   F
  0.8885490887583174  0.5557254856208402  0.3983466115682432   F   F   F
  0.2226089366950106  0.5547821566099884  0.3976932664383028   F   F   F
  0.5557254856208402  0.5557254856208402  0.3983466115682432   F   F   F
  0.8889653483856890  0.8889653483856890  0.3981087821295475   F   F   F
  0.2220692892286067  0.8889653483856890  0.3981087821295475   F   F   F
  0.5557254256208424  0.8885490887583174  0.3983466115682432   F   F   F
  0.0000000000000000  0.0000000000000000  0.4924801942142167   F   F   F
  0.3336304597392399  0.0038717592350892  0.4934718877306423   F   F   F
  0.6624977210256588  0.0038717592350892  0.4934718877306423   F   F   F
  0.0038717592350892  0.3336304897392424  0.4934718877306423   F   F   F
  0.6624977810256567  0.3336304897392424  0.4934718877306423   F   F   F
  0.0038717592350892  0.6624977810256567  0.4934718877306423   F   F   F
  0.3336304597392399  0.6624977810256567  0.4934718877306423   F   F   F
  0.6666666269999979  0.6666666870000029  0.4932781688880397   F   F   F
  0.3333333129999971  0.3333333429999996  0.4872584886046170   F   F   F
  0.3333333129999971  0.3333333429999996  0.5587373449871436   T   T   T
  0.3333333129999971  0.3333333429999996  0.5970304868469896   T   T   T
 
  0.00000000E+00  0.00000000E+00  0.00000000E+00
  0.00000000E+00  0.00000000E+00  0.00000000E+00
  0.00000000E+00  0.00000000E+00  0.00000000E+00
  0.00000000E+00  0.00000000E+00  0.00000000E+00
  0.00000000E+00  0.00000000E+00  0.00000000E+00
  0.00000000E+00  0.00000000E+00  0.00000000E+00
  0.00000000E+00  0.00000000E+00  0.00000000E+00
  0.00000000E+00  0.00000000E+00  0.00000000E+00
  0.00000000E+00  0.00000000E+00  0.00000000E+00
  0.00000000E+00  0.00000000E+00  0.00000000E+00
  0.00000000E+00  0.00000000E+00  0.00000000E+00
  0.00000000E+00  0.00000000E+00  0.00000000E+00
  0.00000000E+00  0.00000000E+00  0.00000000E+00
  0.00000000E+00  0.00000000E+00  0.00000000E+00
  0.00000000E+00  0.00000000E+00  0.00000000E+00
  0.00000000E+00  0.00000000E+00  0.00000000E+00
  0.00000000E+00  0.00000000E+00  0.00000000E+00
  0.00000000E+00  0.00000000E+00  0.00000000E+00
  0.00000000E+00  0.00000000E+00  0.00000000E+00
  0.00000000E+00  0.00000000E+00  0.00000000E+00
  0.00000000E+00  0.00000000E+00  0.00000000E+00
  0.00000000E+00  0.00000000E+00  0.00000000E+00
  0.00000000E+00  0.00000000E+00  0.00000000E+00
  0.00000000E+00  0.00000000E+00  0.00000000E+00
  0.00000000E+00  0.00000000E+00  0.00000000E+00
  0.00000000E+00  0.00000000E+00  0.00000000E+00
  0.00000000E+00  0.00000000E+00  0.00000000E+00
  0.00000000E+00  0.00000000E+00  0.00000000E+00
  0.00000000E+00  0.00000000E+00  0.00000000E+00
  0.00000000E+00  0.00000000E+00  0.00000000E+00
  0.00000000E+00  0.00000000E+00  0.00000000E+00
  0.00000000E+00  0.00000000E+00  0.00000000E+00
  0.00000000E+00  0.00000000E+00  0.00000000E+00
  0.00000000E+00  0.00000000E+00  0.00000000E+00
  0.00000000E+00  0.00000000E+00  0.00000000E+00
  0.00000000E+00  0.00000000E+00  0.00000000E+00
  0.00000000E+00  0.00000000E+00  0.00000000E+00
  0.00000000E+00  0.00000000E+00  0.00000000E+00
