Au-Ni-OOH                               
   1.00000000000000     
     8.8135128021000000    0.0000000000000000    0.0000000000000000
     4.4067569092000003    7.6327256898000000    0.0000000000000000
     0.0000000000000000    0.0000000000000000   25.9228484302073312
   Au   Ni   O    H 
    35     1     2     1
Selective dynamics
Direct
  0.0000000000000000  0.0000000000000000  0.2036959766679587   F   F   F
  0.3333333429999996  0.0000000000000000  0.2036959766679587   F   F   F
  0.6666666870000029  0.0000000000000000  0.2036959766679587   F   F   F
  0.0000000000000000  0.3333333429999996  0.2036959766679587   F   F   F
  0.3333333129999971  0.3333333429999996  0.2036959766679587   F   F   F
  0.6666666870000029  0.3333333429999996  0.2036959766679587   F   F   F
  0.0000000000000000  0.6666666870000029  0.2036959766679587   F   F   F
  0.3333333429999996  0.6666666870000029  0.2036959766679587   F   F   F
  0.6666666269999979  0.6666666870000029  0.2036959766679587   F   F   F
  0.1111111190000003  0.1111111120000032  0.2962295623638127   F   F   F
  0.4444444180000033  0.1111111120000032  0.2962295623638127   F   F   F
  0.7777777909999983  0.1111111120000032  0.2962295623638127   F   F   F
  0.1111111270000009  0.4444444479999987  0.2962295623638127   F   F   F
  0.4444444780000012  0.4444444479999987  0.2962295623638127   F   F   F
  0.7777777310000005  0.4444444479999987  0.2962295623638127   F   F   F
  0.1111110900000014  0.7777777909999983  0.2962295623638127   F   F   F
  0.4444444479999987  0.7777777909999983  0.2962295623638127   F   F   F
  0.7777778510000033  0.7777777909999983  0.2962295623638127   F   F   F
  0.8890345716339993  0.2219308727320026  0.3884814657185274   F   F   F
  0.2228928792242115  0.2228928642242067  0.3880158077085625   F   F   F
  0.5542143015515677  0.2228928642242067  0.3880158077085625   F   F   F
  0.8875765664249329  0.5562117467875325  0.3880535296359113   F   F   F
  0.2228928342242114  0.5542143015515677  0.3880158077085625   F   F   F
  0.5562117467875325  0.5562117467875325  0.3880535296359113   F   F   F
  0.8890345716339993  0.8890345716339993  0.3884814657185274   F   F   F
  0.2219309027319980  0.8890345716339993  0.3884814657185274   F   F   F
  0.5562116867875275  0.8875765664249329  0.3880535296359113   F   F   F
  0.0000000000000000  0.0000000000000000  0.4817583171352169   F   F   F
  0.3336024962084423  0.0067737428625065  0.4806037401342422   F   F   F
  0.6596237909290608  0.0067737428625065  0.4806037401342422   F   F   F
  0.0067737428625065  0.3336024962084423  0.4806037401342422   F   F   F
  0.6596237909290608  0.3336024962084423  0.4806037401342422   F   F   F
  0.0067737428625065  0.6596237909290608  0.4806037401342422   F   F   F
  0.3336024962084423  0.6596237909290608  0.4806037401342422   F   F   F
  0.6666666269999979  0.6666666870000029  0.4818926868510403   F   F   F
  0.3333333129999971  0.3333333429999996  0.4691415423013297   F   F   F
  0.3627300345765718  0.3628808858238912  0.5381688040031349   T   T   T
  0.2895289507121532  0.2893833773502408  0.5752817146171694   T   T   T
  0.3450693867958350  0.2994379342907223  0.6069109721092119   T   T   T
 
  0.00000000E+00  0.00000000E+00  0.00000000E+00
  0.00000000E+00  0.00000000E+00  0.00000000E+00
  0.00000000E+00  0.00000000E+00  0.00000000E+00
  0.00000000E+00  0.00000000E+00  0.00000000E+00
  0.00000000E+00  0.00000000E+00  0.00000000E+00
  0.00000000E+00  0.00000000E+00  0.00000000E+00
  0.00000000E+00  0.00000000E+00  0.00000000E+00
  0.00000000E+00  0.00000000E+00  0.00000000E+00
  0.00000000E+00  0.00000000E+00  0.00000000E+00
  0.00000000E+00  0.00000000E+00  0.00000000E+00
  0.00000000E+00  0.00000000E+00  0.00000000E+00
  0.00000000E+00  0.00000000E+00  0.00000000E+00
  0.00000000E+00  0.00000000E+00  0.00000000E+00
  0.00000000E+00  0.00000000E+00  0.00000000E+00
  0.00000000E+00  0.00000000E+00  0.00000000E+00
  0.00000000E+00  0.00000000E+00  0.00000000E+00
  0.00000000E+00  0.00000000E+00  0.00000000E+00
  0.00000000E+00  0.00000000E+00  0.00000000E+00
  0.00000000E+00  0.00000000E+00  0.00000000E+00
  0.00000000E+00  0.00000000E+00  0.00000000E+00
  0.00000000E+00  0.00000000E+00  0.00000000E+00
  0.00000000E+00  0.00000000E+00  0.00000000E+00
  0.00000000E+00  0.00000000E+00  0.00000000E+00
  0.00000000E+00  0.00000000E+00  0.00000000E+00
  0.00000000E+00  0.00000000E+00  0.00000000E+00
  0.00000000E+00  0.00000000E+00  0.00000000E+00
  0.00000000E+00  0.00000000E+00  0.00000000E+00
  0.00000000E+00  0.00000000E+00  0.00000000E+00
  0.00000000E+00  0.00000000E+00  0.00000000E+00
  0.00000000E+00  0.00000000E+00  0.00000000E+00
  0.00000000E+00  0.00000000E+00  0.00000000E+00
  0.00000000E+00  0.00000000E+00  0.00000000E+00
  0.00000000E+00  0.00000000E+00  0.00000000E+00
  0.00000000E+00  0.00000000E+00  0.00000000E+00
  0.00000000E+00  0.00000000E+00  0.00000000E+00
  0.00000000E+00  0.00000000E+00  0.00000000E+00
  0.00000000E+00  0.00000000E+00  0.00000000E+00
  0.00000000E+00  0.00000000E+00  0.00000000E+00
  0.00000000E+00  0.00000000E+00  0.00000000E+00
