Ag-Ni-COH                               
   1.00000000000000     
     8.7913665770999998    0.0000000000000000    0.0000000000000000
     4.3956832885999999    7.6135467898000000    0.0000000000000000
     0.0000000000000000    0.0000000000000000   26.5797773967759703
   Ag   Ni   C    O    H 
    35     1     1     1     1
Selective dynamics
Direct
  0.0000000000000000  0.0000000000000000  0.1987295853882500   F   F   F
  0.3333333129999971  0.0000000000000000  0.1987295853882500   F   F   F
  0.6666666269999979  0.0000000000000000  0.1987295853882500   F   F   F
  0.0000000000000000  0.3333333429999996  0.1987295853882500   F   F   F
  0.3333333129999971  0.3333333429999996  0.1987295853882500   F   F   F
  0.6666666870000029  0.3333333429999996  0.1987295853882500   F   F   F
  0.0000000000000000  0.6666666870000029  0.1987295853882500   F   F   F
  0.3333333129999971  0.6666666870000029  0.1987295853882500   F   F   F
  0.6666666269999979  0.6666666870000029  0.1987295853882500   F   F   F
  0.1111111040000026  0.1111111120000032  0.2887494214702215   F   F   F
  0.4444444479999987  0.1111111120000032  0.2887494214702215   F   F   F
  0.7777777909999983  0.1111111120000032  0.2887494214702215   F   F   F
  0.1111110969999984  0.4444444479999987  0.2887494214702215   F   F   F
  0.4444444180000033  0.4444444479999987  0.2887494214702215   F   F   F
  0.7777777909999983  0.4444444479999987  0.2887494214702215   F   F   F
  0.1111111040000026  0.7777777909999983  0.2887494214702215   F   F   F
  0.4444444479999987  0.7777777909999983  0.2887494214702215   F   F   F
  0.7777777909999983  0.7777777909999983  0.2887494214702215   F   F   F
  0.8886638936379967  0.2226722287240008  0.3784148363310891   F   F   F
  0.2227983717366513  0.2227983867366490  0.3778179664852175   F   F   F
  0.5544031965266996  0.2227983867366490  0.3778179664852175   F   F   F
  0.8885324368685588  0.5557338115657231  0.3779692461299931   F   F   F
  0.2227983867366490  0.5544032565266974  0.3778179664852175   F   F   F
  0.5557338115657231  0.5557338115657231  0.3779692461299931   F   F   F
  0.8886638936379967  0.8886638936379967  0.3784148363310891   F   F   F
  0.2226721987239983  0.8886638936379967  0.3784148363310891   F   F   F
  0.5557337515657181  0.8885324368685588  0.3779692461299931   F   F   F
  0.0000000000000000  0.0000000000000000  0.4674035052517027   F   F   F
  0.3333534775831666  0.0072303377364022  0.4672042844063924   F   F   F
  0.6594161246804333  0.0072303377364022  0.4672042844063924   F   F   F
  0.0072303377364022  0.3333535075831691  0.4672042844063924   F   F   F
  0.6594161846804383  0.3333535075831691  0.4672042844063924   F   F   F
  0.0072303377364022  0.6594161846804383  0.4672042844063924   F   F   F
  0.3333534775831666  0.6594161846804383  0.4672042844063924   F   F   F
  0.6666666269999979  0.6666666870000029  0.4672837044473823   F   F   F
  0.3333333129999971  0.3333333429999996  0.4566987994357135   F   F   F
  0.3333333129999971  0.3333333429999996  0.5198002953713273   T   T   T
  0.3333333129999971  0.3333333429999996  0.5672786439629477   T   T   T
  0.3333333129999971  0.3333333429999996  0.6035686631570475   T   T   T
 
  0.00000000E+00  0.00000000E+00  0.00000000E+00
  0.00000000E+00  0.00000000E+00  0.00000000E+00
  0.00000000E+00  0.00000000E+00  0.00000000E+00
  0.00000000E+00  0.00000000E+00  0.00000000E+00
  0.00000000E+00  0.00000000E+00  0.00000000E+00
  0.00000000E+00  0.00000000E+00  0.00000000E+00
  0.00000000E+00  0.00000000E+00  0.00000000E+00
  0.00000000E+00  0.00000000E+00  0.00000000E+00
  0.00000000E+00  0.00000000E+00  0.00000000E+00
  0.00000000E+00  0.00000000E+00  0.00000000E+00
  0.00000000E+00  0.00000000E+00  0.00000000E+00
  0.00000000E+00  0.00000000E+00  0.00000000E+00
  0.00000000E+00  0.00000000E+00  0.00000000E+00
  0.00000000E+00  0.00000000E+00  0.00000000E+00
  0.00000000E+00  0.00000000E+00  0.00000000E+00
  0.00000000E+00  0.00000000E+00  0.00000000E+00
  0.00000000E+00  0.00000000E+00  0.00000000E+00
  0.00000000E+00  0.00000000E+00  0.00000000E+00
  0.00000000E+00  0.00000000E+00  0.00000000E+00
  0.00000000E+00  0.00000000E+00  0.00000000E+00
  0.00000000E+00  0.00000000E+00  0.00000000E+00
  0.00000000E+00  0.00000000E+00  0.00000000E+00
  0.00000000E+00  0.00000000E+00  0.00000000E+00
  0.00000000E+00  0.00000000E+00  0.00000000E+00
  0.00000000E+00  0.00000000E+00  0.00000000E+00
  0.00000000E+00  0.00000000E+00  0.00000000E+00
  0.00000000E+00  0.00000000E+00  0.00000000E+00
  0.00000000E+00  0.00000000E+00  0.00000000E+00
  0.00000000E+00  0.00000000E+00  0.00000000E+00
  0.00000000E+00  0.00000000E+00  0.00000000E+00
  0.00000000E+00  0.00000000E+00  0.00000000E+00
  0.00000000E+00  0.00000000E+00  0.00000000E+00
  0.00000000E+00  0.00000000E+00  0.00000000E+00
  0.00000000E+00  0.00000000E+00  0.00000000E+00
  0.00000000E+00  0.00000000E+00  0.00000000E+00
  0.00000000E+00  0.00000000E+00  0.00000000E+00
  0.00000000E+00  0.00000000E+00  0.00000000E+00
  0.00000000E+00  0.00000000E+00  0.00000000E+00
  0.00000000E+00  0.00000000E+00  0.00000000E+00
