Au-V-N2                                 
   1.00000000000000     
     8.8135128021000000    0.0000000000000000    0.0000000000000000
     4.4067569092000003    7.6327256898000000    0.0000000000000000
     0.0000000000000000    0.0000000000000000   25.5072925022117545
   Au   V    N 
    35     1     2
Selective dynamics
Direct
  0.0000000000000000  0.0000000000000000  0.2070145205944129   F   F   F
  0.3333333429999996  0.0000000000000000  0.2070145205944129   F   F   F
  0.6666666870000029  0.0000000000000000  0.2070145205944129   F   F   F
  0.0000000000000000  0.3333333429999996  0.2070145205944129   F   F   F
  0.3333333129999971  0.3333333429999996  0.2070145205944129   F   F   F
  0.6666666870000029  0.3333333429999996  0.2070145205944129   F   F   F
  0.0000000000000000  0.6666666870000029  0.2070145205944129   F   F   F
  0.3333333429999996  0.6666666870000029  0.2070145205944129   F   F   F
  0.6666666269999979  0.6666666870000029  0.2070145205944129   F   F   F
  0.1111111190000003  0.1111111120000032  0.3010556312489072   F   F   F
  0.4444444180000033  0.1111111120000032  0.3010556312489072   F   F   F
  0.7777777909999983  0.1111111120000032  0.3010556312489072   F   F   F
  0.1111111270000009  0.4444444479999987  0.3010556312489072   F   F   F
  0.4444444780000012  0.4444444479999987  0.3010556312489072   F   F   F
  0.7777777310000005  0.4444444479999987  0.3010556312489072   F   F   F
  0.1111110900000014  0.7777777909999983  0.3010556312489072   F   F   F
  0.4444444479999987  0.7777777909999983  0.3010556312489072   F   F   F
  0.7777778510000033  0.7777777909999983  0.3010556312489072   F   F   F
  0.8887799637594469  0.2224400884811004  0.3950028464949895   F   F   F
  0.2229830246598965  0.2229830096598988  0.3944639292803416   F   F   F
  0.5540340106801978  0.2229830096598988  0.3944639292803416   F   F   F
  0.8867422818554900  0.5566288890722504  0.3945943579752580   F   F   F
  0.2229829796599034  0.5540340106801978  0.3944639292803416   F   F   F
  0.5566288890722504  0.5566288890722504  0.3945943579752580   F   F   F
  0.8887799637594469  0.8887799637594469  0.3950028464949895   F   F   F
  0.2224401184811029  0.8887799637594469  0.3950028464949895   F   F   F
  0.5566288290722525  0.8867422818554900  0.3945943579752580   F   F   F
  0.0000000000000000  0.0000000000000000  0.4889900508735607   F   F   F
  0.3339946077119578  0.0106390707778132  0.4908942388584734   F   F   F
  0.6553663515102173  0.0106390707778132  0.4908942388584734   F   F   F
  0.0106390707778132  0.3339946077119578  0.4908942388584734   F   F   F
  0.6553663515102173  0.3339946077119578  0.4908942388584734   F   F   F
  0.0106390707778132  0.6553663515102173  0.4908942388584734   F   F   F
  0.3339946077119578  0.6553663515102173  0.4908942388584734   F   F   F
  0.6666666269999979  0.6666666870000029  0.4900684650999096   F   F   F
  0.3333333129999971  0.3333333429999996  0.4783455745561085   F   F   F
  0.2673576212061657  0.3388870221227156  0.6375198479944000   T   T   T
  0.3937553256711197  0.3388870221227156  0.6375198479944000   T   T   T
 
  0.00000000E+00  0.00000000E+00  0.00000000E+00
  0.00000000E+00  0.00000000E+00  0.00000000E+00
  0.00000000E+00  0.00000000E+00  0.00000000E+00
  0.00000000E+00  0.00000000E+00  0.00000000E+00
  0.00000000E+00  0.00000000E+00  0.00000000E+00
  0.00000000E+00  0.00000000E+00  0.00000000E+00
  0.00000000E+00  0.00000000E+00  0.00000000E+00
  0.00000000E+00  0.00000000E+00  0.00000000E+00
  0.00000000E+00  0.00000000E+00  0.00000000E+00
  0.00000000E+00  0.00000000E+00  0.00000000E+00
  0.00000000E+00  0.00000000E+00  0.00000000E+00
  0.00000000E+00  0.00000000E+00  0.00000000E+00
  0.00000000E+00  0.00000000E+00  0.00000000E+00
  0.00000000E+00  0.00000000E+00  0.00000000E+00
  0.00000000E+00  0.00000000E+00  0.00000000E+00
  0.00000000E+00  0.00000000E+00  0.00000000E+00
  0.00000000E+00  0.00000000E+00  0.00000000E+00
  0.00000000E+00  0.00000000E+00  0.00000000E+00
  0.00000000E+00  0.00000000E+00  0.00000000E+00
  0.00000000E+00  0.00000000E+00  0.00000000E+00
  0.00000000E+00  0.00000000E+00  0.00000000E+00
  0.00000000E+00  0.00000000E+00  0.00000000E+00
  0.00000000E+00  0.00000000E+00  0.00000000E+00
  0.00000000E+00  0.00000000E+00  0.00000000E+00
  0.00000000E+00  0.00000000E+00  0.00000000E+00
  0.00000000E+00  0.00000000E+00  0.00000000E+00
  0.00000000E+00  0.00000000E+00  0.00000000E+00
  0.00000000E+00  0.00000000E+00  0.00000000E+00
  0.00000000E+00  0.00000000E+00  0.00000000E+00
  0.00000000E+00  0.00000000E+00  0.00000000E+00
  0.00000000E+00  0.00000000E+00  0.00000000E+00
  0.00000000E+00  0.00000000E+00  0.00000000E+00
  0.00000000E+00  0.00000000E+00  0.00000000E+00
  0.00000000E+00  0.00000000E+00  0.00000000E+00
  0.00000000E+00  0.00000000E+00  0.00000000E+00
  0.00000000E+00  0.00000000E+00  0.00000000E+00
  0.00000000E+00  0.00000000E+00  0.00000000E+00
  0.00000000E+00  0.00000000E+00  0.00000000E+00
