Cu-Pd                                   
   1.00000000000000     
     7.6967864037000000    0.0000000000000000    0.0000000000000000
     3.8483927580000001    6.6656128092999998    0.0000000000000000
     0.0000000000000000    0.0000000000000000   21.2843990325999997
   Cu   Pd
    35     1
Selective dynamics
Direct
  0.0000000000000000  0.0000000000000000  0.2523707450000003   F   F   F
  0.3333333429999996  0.0000000000000000  0.2523707450000003   F   F   F
  0.6666666870000029  0.0000000000000000  0.2523707450000003   F   F   F
  0.0000000000000000  0.3333333429999996  0.2523707450000003   F   F   F
  0.3333333129999971  0.3333333429999996  0.2523707450000003   F   F   F
  0.6666666870000029  0.3333333429999996  0.2523707450000003   F   F   F
  0.0000000000000000  0.6666666870000029  0.2523707450000003   F   F   F
  0.3333333730000021  0.6666666870000029  0.2523707450000003   F   F   F
  0.6666666269999979  0.6666666870000029  0.2523707450000003   F   F   F
  0.1111111190000003  0.1111111120000032  0.3507902619999967   F   F   F
  0.4444444180000033  0.1111111120000032  0.3507902619999967   F   F   F
  0.7777777909999983  0.1111111120000032  0.3507902619999967   F   F   F
  0.1111111190000003  0.4444444479999987  0.3507902619999967   F   F   F
  0.4444444780000012  0.4444444479999987  0.3507902619999967   F   F   F
  0.7777777310000005  0.4444444479999987  0.3507902619999967   F   F   F
  0.1111111120000032  0.7777777310000005  0.3507902619999967   F   F   F
  0.4444444780000012  0.7777777310000005  0.3507902619999967   F   F   F
  0.7777778510000033  0.7777777310000005  0.3507902619999967   F   F   F
  0.8888154421816906  0.2223691316366130  0.4482139597968861   T   T   T
  0.2216923665252551  0.2216923515252574  0.4482086387351487   T   T   T
  0.5566153269494734  0.2216923515252574  0.4482086387351487   T   T   T
  0.8890422745120449  0.5554788327439751  0.4485595634830104   T   T   T
  0.2216923365252597  0.5566152669494755  0.4482086387351487   T   T   T
  0.5554788927439730  0.5554788327439751  0.4485595634830104   T   T   T
  0.8888154421816906  0.8888154421816906  0.4482139597968861   T   T   T
  0.2223691466366106  0.8888154421816906  0.4482139597968861   T   T   T
  0.5554788327439751  0.8890422745120449  0.4485595634830104   T   T   T
 -0.0000000000000000  0.0000000000000000  0.5454786050704137   T   T   T
  0.3330959822069682  0.9963070024563674  0.5460405035984858   T   T   T
  0.6705970453366670  0.9963070024563674  0.5460405035984858   T   T   T
  0.9963070024563674  0.3330959822069682  0.5460405035984858   T   T   T
  0.6705970453366670  0.3330959822069682  0.5460405035984858   T   T   T
  0.9963070024563674  0.6705970453366670  0.5460405035984858   T   T   T
  0.3330960122069707  0.6705970453366670  0.5460405035984858   T   T   T
  0.6666666269999979  0.6666666870000029  0.5455242332156721   T   T   T
  0.3333333129999971  0.3333333429999996  0.5494844415844770   T   T   T
 
  0.00000000E+00  0.00000000E+00  0.00000000E+00
  0.00000000E+00  0.00000000E+00  0.00000000E+00
  0.00000000E+00  0.00000000E+00  0.00000000E+00
  0.00000000E+00  0.00000000E+00  0.00000000E+00
  0.00000000E+00  0.00000000E+00  0.00000000E+00
  0.00000000E+00  0.00000000E+00  0.00000000E+00
  0.00000000E+00  0.00000000E+00  0.00000000E+00
  0.00000000E+00  0.00000000E+00  0.00000000E+00
  0.00000000E+00  0.00000000E+00  0.00000000E+00
  0.00000000E+00  0.00000000E+00  0.00000000E+00
  0.00000000E+00  0.00000000E+00  0.00000000E+00
  0.00000000E+00  0.00000000E+00  0.00000000E+00
  0.00000000E+00  0.00000000E+00  0.00000000E+00
  0.00000000E+00  0.00000000E+00  0.00000000E+00
  0.00000000E+00  0.00000000E+00  0.00000000E+00
  0.00000000E+00  0.00000000E+00  0.00000000E+00
  0.00000000E+00  0.00000000E+00  0.00000000E+00
  0.00000000E+00  0.00000000E+00  0.00000000E+00
  0.00000000E+00  0.00000000E+00  0.00000000E+00
  0.00000000E+00  0.00000000E+00  0.00000000E+00
  0.00000000E+00  0.00000000E+00  0.00000000E+00
  0.00000000E+00  0.00000000E+00  0.00000000E+00
  0.00000000E+00  0.00000000E+00  0.00000000E+00
  0.00000000E+00  0.00000000E+00  0.00000000E+00
  0.00000000E+00  0.00000000E+00  0.00000000E+00
  0.00000000E+00  0.00000000E+00  0.00000000E+00
  0.00000000E+00  0.00000000E+00  0.00000000E+00
  0.00000000E+00  0.00000000E+00  0.00000000E+00
  0.00000000E+00  0.00000000E+00  0.00000000E+00
  0.00000000E+00  0.00000000E+00  0.00000000E+00
  0.00000000E+00  0.00000000E+00  0.00000000E+00
  0.00000000E+00  0.00000000E+00  0.00000000E+00
  0.00000000E+00  0.00000000E+00  0.00000000E+00
  0.00000000E+00  0.00000000E+00  0.00000000E+00
  0.00000000E+00  0.00000000E+00  0.00000000E+00
  0.00000000E+00  0.00000000E+00  0.00000000E+00
