Cu-Cr-CO2                               
   1.00000000000000     
     7.6967864037000000    0.0000000000000000    0.0000000000000000
     3.8483927580000001    6.6656128092999998    0.0000000000000000
     0.0000000000000000    0.0000000000000000   23.4632997304554536
   Cu   Cr   C    O 
    35     1     1     2
Selective dynamics
Direct
  0.0000000000000000  0.0000000000000000  0.2289345361668111   F   F   F
  0.3333333429999996  0.0000000000000000  0.2289345361668111   F   F   F
  0.6666666870000029  0.0000000000000000  0.2289345361668111   F   F   F
  0.0000000000000000  0.3333333429999996  0.2289345361668111   F   F   F
  0.3333333129999971  0.3333333429999996  0.2289345361668111   F   F   F
  0.6666666870000029  0.3333333429999996  0.2289345361668111   F   F   F
  0.0000000000000000  0.6666666870000029  0.2289345361668111   F   F   F
  0.3333333730000021  0.6666666870000029  0.2289345361668111   F   F   F
  0.6666666269999979  0.6666666870000029  0.2289345361668111   F   F   F
  0.1111111190000003  0.1111111120000032  0.3182144028730534   F   F   F
  0.4444444180000033  0.1111111120000032  0.3182144028730534   F   F   F
  0.7777777909999983  0.1111111120000032  0.3182144028730534   F   F   F
  0.1111111190000003  0.4444444479999987  0.3182144028730534   F   F   F
  0.4444444780000012  0.4444444479999987  0.3182144028730534   F   F   F
  0.7777777310000005  0.4444444479999987  0.3182144028730534   F   F   F
  0.1111111120000032  0.7777777310000005  0.3182144028730534   F   F   F
  0.4444444780000012  0.7777777310000005  0.3182144028730534   F   F   F
  0.7777778510000033  0.7777777310000005  0.3182144028730534   F   F   F
  0.8888974416217081  0.2222051327565566  0.4070938446608992   F   F   F
  0.2222655834978582  0.2222655684978676  0.4067895358768823   F   F   F
  0.5554688930042673  0.2222655684978676  0.4067895358768823   F   F   F
  0.8883288926137283  0.5558355236931405  0.4074116891041228   F   F   F
  0.2222655534978699  0.5554688330042694  0.4067895358768823   F   F   F
  0.5558355836931312  0.5558355236931405  0.4074116891041228   F   F   F
  0.8888974416217081  0.8888974416217081  0.4070938446608992   F   F   F
  0.2222051477565614  0.8888974416217081  0.4070938446608992   F   F   F
  0.5558355236931405  0.8883288926137283  0.4074116891041228   F   F   F
  0.0000000000000000  0.0000000000000000  0.4960832495469774   F   F   F
  0.3332155717562273  0.0020749675089888  0.4965368072653078   F   F   F
  0.6647094907347935  0.0020749675089888  0.4965368072653078   F   F   F
  0.0020749675089888  0.3332155717562273  0.4965368072653078   F   F   F
  0.6647094907347935  0.3332155717562273  0.4965368072653078   F   F   F
  0.0020749675089888  0.6647094907347935  0.4965368072653078   F   F   F
  0.3332156017562298  0.6647094907347935  0.4965368072653078   F   F   F
  0.6666666269999979  0.6666666870000029  0.4963073113727177   F   F   F
  0.3333333129999971  0.3333333429999996  0.4925733772705030   F   F   F
  0.3326308275978889  0.3347383138042090  0.5784461637435783   T   T   T
  0.1822729299586854  0.3308382618888928  0.5957721996396046   T   T   T
  0.4868887771524228  0.3308382618888928  0.5957721996396046   T   T   T
 
  0.00000000E+00  0.00000000E+00  0.00000000E+00
  0.00000000E+00  0.00000000E+00  0.00000000E+00
  0.00000000E+00  0.00000000E+00  0.00000000E+00
  0.00000000E+00  0.00000000E+00  0.00000000E+00
  0.00000000E+00  0.00000000E+00  0.00000000E+00
  0.00000000E+00  0.00000000E+00  0.00000000E+00
  0.00000000E+00  0.00000000E+00  0.00000000E+00
  0.00000000E+00  0.00000000E+00  0.00000000E+00
  0.00000000E+00  0.00000000E+00  0.00000000E+00
  0.00000000E+00  0.00000000E+00  0.00000000E+00
  0.00000000E+00  0.00000000E+00  0.00000000E+00
  0.00000000E+00  0.00000000E+00  0.00000000E+00
  0.00000000E+00  0.00000000E+00  0.00000000E+00
  0.00000000E+00  0.00000000E+00  0.00000000E+00
  0.00000000E+00  0.00000000E+00  0.00000000E+00
  0.00000000E+00  0.00000000E+00  0.00000000E+00
  0.00000000E+00  0.00000000E+00  0.00000000E+00
  0.00000000E+00  0.00000000E+00  0.00000000E+00
  0.00000000E+00  0.00000000E+00  0.00000000E+00
  0.00000000E+00  0.00000000E+00  0.00000000E+00
  0.00000000E+00  0.00000000E+00  0.00000000E+00
  0.00000000E+00  0.00000000E+00  0.00000000E+00
  0.00000000E+00  0.00000000E+00  0.00000000E+00
  0.00000000E+00  0.00000000E+00  0.00000000E+00
  0.00000000E+00  0.00000000E+00  0.00000000E+00
  0.00000000E+00  0.00000000E+00  0.00000000E+00
  0.00000000E+00  0.00000000E+00  0.00000000E+00
  0.00000000E+00  0.00000000E+00  0.00000000E+00
  0.00000000E+00  0.00000000E+00  0.00000000E+00
  0.00000000E+00  0.00000000E+00  0.00000000E+00
  0.00000000E+00  0.00000000E+00  0.00000000E+00
  0.00000000E+00  0.00000000E+00  0.00000000E+00
  0.00000000E+00  0.00000000E+00  0.00000000E+00
  0.00000000E+00  0.00000000E+00  0.00000000E+00
  0.00000000E+00  0.00000000E+00  0.00000000E+00
  0.00000000E+00  0.00000000E+00  0.00000000E+00
  0.00000000E+00  0.00000000E+00  0.00000000E+00
  0.00000000E+00  0.00000000E+00  0.00000000E+00
  0.00000000E+00  0.00000000E+00  0.00000000E+00
