Ag-Pd-N2                                
   1.00000000000000     
     8.7913665770999998    0.0000000000000000    0.0000000000000000
     4.3956832885999999    7.6135467898000000    0.0000000000000000
     0.0000000000000000    0.0000000000000000   24.5049481010581900
   Ag   Pd   N 
    35     1     2
Selective dynamics
Direct
  0.0000000000000000  0.0000000000000000  0.2155559815915424   F   F   F
  0.3333333129999971  0.0000000000000000  0.2155559815915424   F   F   F
  0.6666666269999979  0.0000000000000000  0.2155559815915424   F   F   F
  0.0000000000000000  0.3333333429999996  0.2155559815915424   F   F   F
  0.3333333129999971  0.3333333429999996  0.2155559815915424   F   F   F
  0.6666666870000029  0.3333333429999996  0.2155559815915424   F   F   F
  0.0000000000000000  0.6666666870000029  0.2155559815915424   F   F   F
  0.3333333129999971  0.6666666870000029  0.2155559815915424   F   F   F
  0.6666666269999979  0.6666666870000029  0.2155559815915424   F   F   F
  0.1111111040000026  0.1111111120000032  0.3131977800758889   F   F   F
  0.4444444479999987  0.1111111120000032  0.3131977800758889   F   F   F
  0.7777777909999983  0.1111111120000032  0.3131977800758889   F   F   F
  0.1111110969999984  0.4444444479999987  0.3131977800758889   F   F   F
  0.4444444180000033  0.4444444479999987  0.3131977800758889   F   F   F
  0.7777777909999983  0.4444444479999987  0.3131977800758889   F   F   F
  0.1111111040000026  0.7777777909999983  0.3131977800758889   F   F   F
  0.4444444479999987  0.7777777909999983  0.3131977800758889   F   F   F
  0.7777777909999983  0.7777777909999983  0.3131977800758889   F   F   F
  0.8887301377009393  0.2225397405981298  0.4102184514055693   F   F   F
  0.2220376286556700  0.2220376436556677  0.4097129974523597   F   F   F
  0.5559246826886479  0.2220376436556677  0.4097129974523597   F   F   F
  0.8888542602374372  0.5555728998812697  0.4100025103304006   F   F   F
  0.2220376436556677  0.5559247426886529  0.4097129974523597   F   F   F
  0.5555728998812697  0.5555728998812697  0.4100025103304006   F   F   F
  0.8887301377009393  0.8887301377009393  0.4102184514055693   F   F   F
  0.2225397105981202  0.8887301377009393  0.4102184514055693   F   F   F
  0.5555728398812718  0.8888542602374372  0.4100025103304006   F   F   F
  0.0000000000000000  0.0000000000000000  0.5069396691430583   F   F   F
  0.3334471993126087  0.0025011092916785  0.5070181248019168   F   F   F
  0.6640516313957079  0.0025011092916785  0.5070181248019168   F   F   F
  0.0025011092916785  0.3334472293126112  0.5070181248019168   F   F   F
  0.6640516913957129  0.3334472293126112  0.5070181248019168   F   F   F
  0.0025011092916785  0.6640516913957129  0.5070181248019168   F   F   F
  0.3334471993126087  0.6640516913957129  0.5070181248019168   F   F   F
  0.6666666269999979  0.6666666870000029  0.5067575504270465   F   F   F
  0.3333333129999971  0.3333333429999996  0.5013813968681902   F   F   F
  0.2707514104777865  0.3318197384621701  0.6777674848527464   T   T   T
  0.3974288200600373  0.3318197384621701  0.6777674848527464   T   T   T
 
  0.00000000E+00  0.00000000E+00  0.00000000E+00
  0.00000000E+00  0.00000000E+00  0.00000000E+00
  0.00000000E+00  0.00000000E+00  0.00000000E+00
  0.00000000E+00  0.00000000E+00  0.00000000E+00
  0.00000000E+00  0.00000000E+00  0.00000000E+00
  0.00000000E+00  0.00000000E+00  0.00000000E+00
  0.00000000E+00  0.00000000E+00  0.00000000E+00
  0.00000000E+00  0.00000000E+00  0.00000000E+00
  0.00000000E+00  0.00000000E+00  0.00000000E+00
  0.00000000E+00  0.00000000E+00  0.00000000E+00
  0.00000000E+00  0.00000000E+00  0.00000000E+00
  0.00000000E+00  0.00000000E+00  0.00000000E+00
  0.00000000E+00  0.00000000E+00  0.00000000E+00
  0.00000000E+00  0.00000000E+00  0.00000000E+00
  0.00000000E+00  0.00000000E+00  0.00000000E+00
  0.00000000E+00  0.00000000E+00  0.00000000E+00
  0.00000000E+00  0.00000000E+00  0.00000000E+00
  0.00000000E+00  0.00000000E+00  0.00000000E+00
  0.00000000E+00  0.00000000E+00  0.00000000E+00
  0.00000000E+00  0.00000000E+00  0.00000000E+00
  0.00000000E+00  0.00000000E+00  0.00000000E+00
  0.00000000E+00  0.00000000E+00  0.00000000E+00
  0.00000000E+00  0.00000000E+00  0.00000000E+00
  0.00000000E+00  0.00000000E+00  0.00000000E+00
  0.00000000E+00  0.00000000E+00  0.00000000E+00
  0.00000000E+00  0.00000000E+00  0.00000000E+00
  0.00000000E+00  0.00000000E+00  0.00000000E+00
  0.00000000E+00  0.00000000E+00  0.00000000E+00
  0.00000000E+00  0.00000000E+00  0.00000000E+00
  0.00000000E+00  0.00000000E+00  0.00000000E+00
  0.00000000E+00  0.00000000E+00  0.00000000E+00
  0.00000000E+00  0.00000000E+00  0.00000000E+00
  0.00000000E+00  0.00000000E+00  0.00000000E+00
  0.00000000E+00  0.00000000E+00  0.00000000E+00
  0.00000000E+00  0.00000000E+00  0.00000000E+00
  0.00000000E+00  0.00000000E+00  0.00000000E+00
  0.00000000E+00  0.00000000E+00  0.00000000E+00
  0.00000000E+00  0.00000000E+00  0.00000000E+00
