Ag-V                                    
   1.00000000000000     
     8.7913665770999998    0.0000000000000000    0.0000000000000000
     4.3956832885999999    7.6135467898000000    0.0000000000000000
     0.0000000000000000    0.0000000000000000   22.1781215668000016
   Ag   V 
    35     1
Selective dynamics
Direct
  0.0000000000000000  0.0000000000000000  0.2381711239999973   F   F   F
  0.3333333129999971  0.0000000000000000  0.2381711239999973   F   F   F
  0.6666666269999979  0.0000000000000000  0.2381711239999973   F   F   F
  0.0000000000000000  0.3333333429999996  0.2381711239999973   F   F   F
  0.3333333129999971  0.3333333429999996  0.2381711239999973   F   F   F
  0.6666666870000029  0.3333333429999996  0.2381711239999973   F   F   F
  0.0000000000000000  0.6666666870000029  0.2381711239999973   F   F   F
  0.3333333129999971  0.6666666870000029  0.2381711239999973   F   F   F
  0.6666666269999979  0.6666666870000029  0.2381711239999973   F   F   F
  0.1111111040000026  0.1111111120000032  0.3460570510000025   F   F   F
  0.4444444479999987  0.1111111120000032  0.3460570510000025   F   F   F
  0.7777777909999983  0.1111111120000032  0.3460570510000025   F   F   F
  0.1111110969999984  0.4444444479999987  0.3460570510000025   F   F   F
  0.4444444180000033  0.4444444479999987  0.3460570510000025   F   F   F
  0.7777777909999983  0.4444444479999987  0.3460570510000025   F   F   F
  0.1111111040000026  0.7777777909999983  0.3460570510000025   F   F   F
  0.4444444479999987  0.7777777909999983  0.3460570510000025   F   F   F
  0.7777777909999983  0.7777777909999983  0.3460570510000025   F   F   F
  0.8888465865274088  0.2223068429451696  0.4534360248988650   T   T   T
  0.2226445376378583  0.2226445526378560  0.4526248979793687   T   T   T
  0.5547108647242857  0.2226445526378560  0.4526248979793687   T   T   T
  0.8885295266626578  0.5557352666686665  0.4533819848761420   T   T   T
  0.2226445526378560  0.5547109247242835  0.4526248979793687   T   T   T
  0.5557352666686665  0.5557352666686665  0.4533819848761420   T   T   T
  0.8888465865274088  0.8888465865274088  0.4534360248988650   T   T   T
  0.2223068129451671  0.8888465865274088  0.4534360248988650   T   T   T
  0.5557352066686686  0.8885295266626578  0.4533819848761420   T   T   T
  0.0000000000000000 -0.0000000000000000  0.5604339917682948   T   T   T
  0.3335758635562804  0.0061119851352109  0.5615168657074885   T   T   T
  0.6603120913085035  0.0061119851352109  0.5615168657074885   T   T   T
  0.0061119851352109  0.3335758935562829  0.5615168657074885   T   T   T
  0.6603121513085085  0.3335758935562829  0.5615168657074885   T   T   T
  0.0061119851352109  0.6603121513085085  0.5615168657074885   T   T   T
  0.3335758635562804  0.6603121513085085  0.5615168657074885   T   T   T
  0.6666666269999979  0.6666666870000029  0.5607671521355925   T   T   T
  0.3333333129999971  0.3333333429999996  0.5508444090289023   T   T   T
 
  0.00000000E+00  0.00000000E+00  0.00000000E+00
  0.00000000E+00  0.00000000E+00  0.00000000E+00
  0.00000000E+00  0.00000000E+00  0.00000000E+00
  0.00000000E+00  0.00000000E+00  0.00000000E+00
  0.00000000E+00  0.00000000E+00  0.00000000E+00
  0.00000000E+00  0.00000000E+00  0.00000000E+00
  0.00000000E+00  0.00000000E+00  0.00000000E+00
  0.00000000E+00  0.00000000E+00  0.00000000E+00
  0.00000000E+00  0.00000000E+00  0.00000000E+00
  0.00000000E+00  0.00000000E+00  0.00000000E+00
  0.00000000E+00  0.00000000E+00  0.00000000E+00
  0.00000000E+00  0.00000000E+00  0.00000000E+00
  0.00000000E+00  0.00000000E+00  0.00000000E+00
  0.00000000E+00  0.00000000E+00  0.00000000E+00
  0.00000000E+00  0.00000000E+00  0.00000000E+00
  0.00000000E+00  0.00000000E+00  0.00000000E+00
  0.00000000E+00  0.00000000E+00  0.00000000E+00
  0.00000000E+00  0.00000000E+00  0.00000000E+00
  0.00000000E+00  0.00000000E+00  0.00000000E+00
  0.00000000E+00  0.00000000E+00  0.00000000E+00
  0.00000000E+00  0.00000000E+00  0.00000000E+00
  0.00000000E+00  0.00000000E+00  0.00000000E+00
  0.00000000E+00  0.00000000E+00  0.00000000E+00
  0.00000000E+00  0.00000000E+00  0.00000000E+00
  0.00000000E+00  0.00000000E+00  0.00000000E+00
  0.00000000E+00  0.00000000E+00  0.00000000E+00
  0.00000000E+00  0.00000000E+00  0.00000000E+00
  0.00000000E+00  0.00000000E+00  0.00000000E+00
  0.00000000E+00  0.00000000E+00  0.00000000E+00
  0.00000000E+00  0.00000000E+00  0.00000000E+00
  0.00000000E+00  0.00000000E+00  0.00000000E+00
  0.00000000E+00  0.00000000E+00  0.00000000E+00
  0.00000000E+00  0.00000000E+00  0.00000000E+00
  0.00000000E+00  0.00000000E+00  0.00000000E+00
  0.00000000E+00  0.00000000E+00  0.00000000E+00
  0.00000000E+00  0.00000000E+00  0.00000000E+00
