Cu-Co                                   
   1.00000000000000     
     7.6967864037000000    0.0000000000000000    0.0000000000000000
     3.8483927580000001    6.6656128092999998    0.0000000000000000
     0.0000000000000000    0.0000000000000000   21.2843990325999997
   Cu   Co
    35     1
Selective dynamics
Direct
  0.0000000000000000  0.0000000000000000  0.2523707450000003   F   F   F
  0.3333333429999996  0.0000000000000000  0.2523707450000003   F   F   F
  0.6666666870000029  0.0000000000000000  0.2523707450000003   F   F   F
  0.0000000000000000  0.3333333429999996  0.2523707450000003   F   F   F
  0.3333333129999971  0.3333333429999996  0.2523707450000003   F   F   F
  0.6666666870000029  0.3333333429999996  0.2523707450000003   F   F   F
  0.0000000000000000  0.6666666870000029  0.2523707450000003   F   F   F
  0.3333333730000021  0.6666666870000029  0.2523707450000003   F   F   F
  0.6666666269999979  0.6666666870000029  0.2523707450000003   F   F   F
  0.1111111190000003  0.1111111120000032  0.3507902619999967   F   F   F
  0.4444444180000033  0.1111111120000032  0.3507902619999967   F   F   F
  0.7777777909999983  0.1111111120000032  0.3507902619999967   F   F   F
  0.1111111190000003  0.4444444479999987  0.3507902619999967   F   F   F
  0.4444444780000012  0.4444444479999987  0.3507902619999967   F   F   F
  0.7777777310000005  0.4444444479999987  0.3507902619999967   F   F   F
  0.1111111120000032  0.7777777310000005  0.3507902619999967   F   F   F
  0.4444444780000012  0.7777777310000005  0.3507902619999967   F   F   F
  0.7777778510000033  0.7777777310000005  0.3507902619999967   F   F   F
  0.8886672735626456  0.2226654688746957  0.4489184183144154   T   T   T
  0.2223130414906951  0.2223130264906974  0.4482893165562135   T   T   T
  0.5553739770186005  0.2223130264906974  0.4482893165562135   T   T   T
  0.8885771449532305  0.5557113975233858  0.4488282098313324   T   T   T
  0.2223130114906997  0.5553739170186026  0.4482893165562135   T   T   T
  0.5557114575233837  0.5557113975233858  0.4488282098313324   T   T   T
  0.8886672735626456  0.8886672735626456  0.4489184183144154   T   T   T
  0.2226654838746934  0.8886672735626456  0.4489184183144154   T   T   T
  0.5557113975233858  0.8885771449532305  0.4488282098313324   T   T   T
 -0.0000000000000000  0.0000000000000000  0.5460204191804466   T   T   T
  0.3330527771268207  0.0032180676776184  0.5463346824529568   T   T   T
  0.6637291851955633  0.0032180676776184  0.5463346824529568   T   T   T
  0.0032180676776184  0.3330527771268207  0.5463346824529568   T   T   T
  0.6637291851955633  0.3330527771268207  0.5463346824529568   T   T   T
  0.0032180676776184  0.6637291851955633  0.5463346824529568   T   T   T
  0.3330528071268232  0.6637291851955633  0.5463346824529568   T   T   T
  0.6666666269999979  0.6666666870000029  0.5459731759019448   T   T   T
  0.3333333129999971  0.3333333429999996  0.5408705498660503   T   T   T
 
  0.00000000E+00  0.00000000E+00  0.00000000E+00
  0.00000000E+00  0.00000000E+00  0.00000000E+00
  0.00000000E+00  0.00000000E+00  0.00000000E+00
  0.00000000E+00  0.00000000E+00  0.00000000E+00
  0.00000000E+00  0.00000000E+00  0.00000000E+00
  0.00000000E+00  0.00000000E+00  0.00000000E+00
  0.00000000E+00  0.00000000E+00  0.00000000E+00
  0.00000000E+00  0.00000000E+00  0.00000000E+00
  0.00000000E+00  0.00000000E+00  0.00000000E+00
  0.00000000E+00  0.00000000E+00  0.00000000E+00
  0.00000000E+00  0.00000000E+00  0.00000000E+00
  0.00000000E+00  0.00000000E+00  0.00000000E+00
  0.00000000E+00  0.00000000E+00  0.00000000E+00
  0.00000000E+00  0.00000000E+00  0.00000000E+00
  0.00000000E+00  0.00000000E+00  0.00000000E+00
  0.00000000E+00  0.00000000E+00  0.00000000E+00
  0.00000000E+00  0.00000000E+00  0.00000000E+00
  0.00000000E+00  0.00000000E+00  0.00000000E+00
  0.00000000E+00  0.00000000E+00  0.00000000E+00
  0.00000000E+00  0.00000000E+00  0.00000000E+00
  0.00000000E+00  0.00000000E+00  0.00000000E+00
  0.00000000E+00  0.00000000E+00  0.00000000E+00
  0.00000000E+00  0.00000000E+00  0.00000000E+00
  0.00000000E+00  0.00000000E+00  0.00000000E+00
  0.00000000E+00  0.00000000E+00  0.00000000E+00
  0.00000000E+00  0.00000000E+00  0.00000000E+00
  0.00000000E+00  0.00000000E+00  0.00000000E+00
  0.00000000E+00  0.00000000E+00  0.00000000E+00
  0.00000000E+00  0.00000000E+00  0.00000000E+00
  0.00000000E+00  0.00000000E+00  0.00000000E+00
  0.00000000E+00  0.00000000E+00  0.00000000E+00
  0.00000000E+00  0.00000000E+00  0.00000000E+00
  0.00000000E+00  0.00000000E+00  0.00000000E+00
  0.00000000E+00  0.00000000E+00  0.00000000E+00
  0.00000000E+00  0.00000000E+00  0.00000000E+00
  0.00000000E+00  0.00000000E+00  0.00000000E+00
