Ag-Pt-CO2                               
   1.00000000000000     
     8.7913665770999998    0.0000000000000000    0.0000000000000000
     4.3956832885999999    7.6135467898000000    0.0000000000000000
     0.0000000000000000    0.0000000000000000   24.3553720923146599
   Ag   Pt   C    O 
    35     1     1     2
Selective dynamics
Direct
  0.0000000000000000  0.0000000000000000  0.2168797964470528   F   F   F
  0.3333333129999971  0.0000000000000000  0.2168797964470528   F   F   F
  0.6666666269999979  0.0000000000000000  0.2168797964470528   F   F   F
  0.0000000000000000  0.3333333429999996  0.2168797964470528   F   F   F
  0.3333333129999971  0.3333333429999996  0.2168797964470528   F   F   F
  0.6666666870000029  0.3333333429999996  0.2168797964470528   F   F   F
  0.0000000000000000  0.6666666870000029  0.2168797964470528   F   F   F
  0.3333333129999971  0.6666666870000029  0.2168797964470528   F   F   F
  0.6666666269999979  0.6666666870000029  0.2168797964470528   F   F   F
  0.1111111040000026  0.1111111120000032  0.3151212519782476   F   F   F
  0.4444444479999987  0.1111111120000032  0.3151212519782476   F   F   F
  0.7777777909999983  0.1111111120000032  0.3151212519782476   F   F   F
  0.1111110969999984  0.4444444479999987  0.3151212519782476   F   F   F
  0.4444444180000033  0.4444444479999987  0.3151212519782476   F   F   F
  0.7777777909999983  0.4444444479999987  0.3151212519782476   F   F   F
  0.1111111040000026  0.7777777909999983  0.3151212519782476   F   F   F
  0.4444444479999987  0.7777777909999983  0.3151212519782476   F   F   F
  0.7777777909999983  0.7777777909999983  0.3151212519782476   F   F   F
  0.8883511151126982  0.2232977857745979  0.4130920909707569   F   F   F
  0.2214609333873625  0.2214609483873602  0.4117167574095575   F   F   F
  0.5570780732252771  0.2214609483873602  0.4117167574095575   F   F   F
  0.8885641818864229  0.5557179390567768  0.4124429560661795   F   F   F
  0.2214609483873602  0.5570781332252679  0.4117167574095575   F   F   F
  0.5557179390567768  0.5557179390567768  0.4124429560661795   F   F   F
  0.8883511151126982  0.8883511151126982  0.4130920909707569   F   F   F
  0.2232977557746025  0.8883511151126982  0.4130920909707569   F   F   F
  0.5557178790567932  0.8885641818864229  0.4124429560661795   F   F   F
  0.0000000000000000  0.0000000000000000  0.5100445934991384   F   F   F
  0.3333622403172427  0.0042214060965335  0.5105491097464423   F   F   F
  0.6624162935862330  0.0042214060965335  0.5105491097464423   F   F   F
  0.0042214060965335  0.3333622703172523  0.5105491097464423   F   F   F
  0.6624163535862309  0.3333622703172523  0.5105491097464423   F   F   F
  0.0042214060965335  0.6624163535862309  0.5105491097464423   F   F   F
  0.3333622403172427  0.6624163535862309  0.5105491097464423   F   F   F
  0.6666666269999979  0.6666666870000029  0.5096407865893298   F   F   F
  0.3333333129999971  0.3333333429999996  0.5032383373693321   F   F   F
  0.3330833959785835  0.3338690315715667  0.5939535608401414   T   T   T
  0.2010116406272218  0.3334539338546065  0.6097600500854128   T   T   T
  0.4654957238639383  0.3336275550008878  0.6097521848781753   T   T   T
 
  0.00000000E+00  0.00000000E+00  0.00000000E+00
  0.00000000E+00  0.00000000E+00  0.00000000E+00
  0.00000000E+00  0.00000000E+00  0.00000000E+00
  0.00000000E+00  0.00000000E+00  0.00000000E+00
  0.00000000E+00  0.00000000E+00  0.00000000E+00
  0.00000000E+00  0.00000000E+00  0.00000000E+00
  0.00000000E+00  0.00000000E+00  0.00000000E+00
  0.00000000E+00  0.00000000E+00  0.00000000E+00
  0.00000000E+00  0.00000000E+00  0.00000000E+00
  0.00000000E+00  0.00000000E+00  0.00000000E+00
  0.00000000E+00  0.00000000E+00  0.00000000E+00
  0.00000000E+00  0.00000000E+00  0.00000000E+00
  0.00000000E+00  0.00000000E+00  0.00000000E+00
  0.00000000E+00  0.00000000E+00  0.00000000E+00
  0.00000000E+00  0.00000000E+00  0.00000000E+00
  0.00000000E+00  0.00000000E+00  0.00000000E+00
  0.00000000E+00  0.00000000E+00  0.00000000E+00
  0.00000000E+00  0.00000000E+00  0.00000000E+00
  0.00000000E+00  0.00000000E+00  0.00000000E+00
  0.00000000E+00  0.00000000E+00  0.00000000E+00
  0.00000000E+00  0.00000000E+00  0.00000000E+00
  0.00000000E+00  0.00000000E+00  0.00000000E+00
  0.00000000E+00  0.00000000E+00  0.00000000E+00
  0.00000000E+00  0.00000000E+00  0.00000000E+00
  0.00000000E+00  0.00000000E+00  0.00000000E+00
  0.00000000E+00  0.00000000E+00  0.00000000E+00
  0.00000000E+00  0.00000000E+00  0.00000000E+00
  0.00000000E+00  0.00000000E+00  0.00000000E+00
  0.00000000E+00  0.00000000E+00  0.00000000E+00
  0.00000000E+00  0.00000000E+00  0.00000000E+00
  0.00000000E+00  0.00000000E+00  0.00000000E+00
  0.00000000E+00  0.00000000E+00  0.00000000E+00
  0.00000000E+00  0.00000000E+00  0.00000000E+00
  0.00000000E+00  0.00000000E+00  0.00000000E+00
  0.00000000E+00  0.00000000E+00  0.00000000E+00
  0.00000000E+00  0.00000000E+00  0.00000000E+00
  0.00000000E+00  0.00000000E+00  0.00000000E+00
  0.00000000E+00  0.00000000E+00  0.00000000E+00
  0.00000000E+00  0.00000000E+00  0.00000000E+00
