Cu-Os-CO                                
   1.00000000000000     
     7.6967864037000000    0.0000000000000000    0.0000000000000000
     3.8483927580000001    6.6656128092999998    0.0000000000000000
     0.0000000000000000    0.0000000000000000   24.6567034444248563
   Cu   Os   C    O 
    35     1     1     1
Selective dynamics
Direct
  0.0000000000000000  0.0000000000000000  0.2178539257221388   F   F   F
  0.3333333429999996  0.0000000000000000  0.2178539257221388   F   F   F
  0.6666666870000029  0.0000000000000000  0.2178539257221388   F   F   F
  0.0000000000000000  0.3333333429999996  0.2178539257221388   F   F   F
  0.3333333129999971  0.3333333429999996  0.2178539257221388   F   F   F
  0.6666666870000029  0.3333333429999996  0.2178539257221388   F   F   F
  0.0000000000000000  0.6666666870000029  0.2178539257221388   F   F   F
  0.3333333730000021  0.6666666870000029  0.2178539257221388   F   F   F
  0.6666666269999979  0.6666666870000029  0.2178539257221388   F   F   F
  0.1111111190000003  0.1111111120000032  0.3028125771146577   F   F   F
  0.4444444180000033  0.1111111120000032  0.3028125771146577   F   F   F
  0.7777777909999983  0.1111111120000032  0.3028125771146577   F   F   F
  0.1111111190000003  0.4444444479999987  0.3028125771146577   F   F   F
  0.4444444780000012  0.4444444479999987  0.3028125771146577   F   F   F
  0.7777777310000005  0.4444444479999987  0.3028125771146577   F   F   F
  0.1111111120000032  0.7777777310000005  0.3028125771146577   F   F   F
  0.4444444780000012  0.7777777310000005  0.3028125771146577   F   F   F
  0.7777778510000033  0.7777777310000005  0.3028125771146577   F   F   F
  0.8884896078157212  0.2230208003685590  0.3878862569552481   F   F   F
  0.2212247527015379  0.2212247377015402  0.3865032224339231   F   F   F
  0.5575505545969222  0.2212247377015402  0.3865032224339231   F   F   F
  0.8878356294135230  0.5560821552932396  0.3879374859464590   F   F   F
  0.2212247227015425  0.5575504945969172  0.3865032224339231   F   F   F
  0.5560822152932374  0.5560821552932396  0.3879374859464590   F   F   F
  0.8884896078157212  0.8884896078157212  0.3878862569552481   F   F   F
  0.2230208153685567  0.8884896078157212  0.3878862569552481   F   F   F
  0.5560821552932396  0.8878356294135230  0.3879374859464590   F   F   F
  0.0000000000000000  0.0000000000000000  0.4721570305318892   F   F   F
  0.3326620008895986  0.0003628447085475  0.4734024272751682   F   F   F
  0.6669751844018634  0.0003628447085475  0.4734024272751682   F   F   F
  0.0003628447085475  0.3326620008895986  0.4734024272751682   F   F   F
  0.6669751844018634  0.3326620008895986  0.4734024272751682   F   F   F
  0.0003628447085475  0.6669751844018634  0.4734024272751682   F   F   F
  0.3326620308896011  0.6669751844018634  0.4734024272751682   F   F   F
  0.6666666269999979  0.6666666870000029  0.4720967598463872   F   F   F
  0.3333333129999971  0.3333333429999996  0.4694785232611167   F   F   F
  0.3333333129999971  0.3333333429999996  0.5458817708867248   T   T   T
  0.3333333129999971  0.3333333429999996  0.5934554053129193   T   T   T
 
  0.00000000E+00  0.00000000E+00  0.00000000E+00
  0.00000000E+00  0.00000000E+00  0.00000000E+00
  0.00000000E+00  0.00000000E+00  0.00000000E+00
  0.00000000E+00  0.00000000E+00  0.00000000E+00
  0.00000000E+00  0.00000000E+00  0.00000000E+00
  0.00000000E+00  0.00000000E+00  0.00000000E+00
  0.00000000E+00  0.00000000E+00  0.00000000E+00
  0.00000000E+00  0.00000000E+00  0.00000000E+00
  0.00000000E+00  0.00000000E+00  0.00000000E+00
  0.00000000E+00  0.00000000E+00  0.00000000E+00
  0.00000000E+00  0.00000000E+00  0.00000000E+00
  0.00000000E+00  0.00000000E+00  0.00000000E+00
  0.00000000E+00  0.00000000E+00  0.00000000E+00
  0.00000000E+00  0.00000000E+00  0.00000000E+00
  0.00000000E+00  0.00000000E+00  0.00000000E+00
  0.00000000E+00  0.00000000E+00  0.00000000E+00
  0.00000000E+00  0.00000000E+00  0.00000000E+00
  0.00000000E+00  0.00000000E+00  0.00000000E+00
  0.00000000E+00  0.00000000E+00  0.00000000E+00
  0.00000000E+00  0.00000000E+00  0.00000000E+00
  0.00000000E+00  0.00000000E+00  0.00000000E+00
  0.00000000E+00  0.00000000E+00  0.00000000E+00
  0.00000000E+00  0.00000000E+00  0.00000000E+00
  0.00000000E+00  0.00000000E+00  0.00000000E+00
  0.00000000E+00  0.00000000E+00  0.00000000E+00
  0.00000000E+00  0.00000000E+00  0.00000000E+00
  0.00000000E+00  0.00000000E+00  0.00000000E+00
  0.00000000E+00  0.00000000E+00  0.00000000E+00
  0.00000000E+00  0.00000000E+00  0.00000000E+00
  0.00000000E+00  0.00000000E+00  0.00000000E+00
  0.00000000E+00  0.00000000E+00  0.00000000E+00
  0.00000000E+00  0.00000000E+00  0.00000000E+00
  0.00000000E+00  0.00000000E+00  0.00000000E+00
  0.00000000E+00  0.00000000E+00  0.00000000E+00
  0.00000000E+00  0.00000000E+00  0.00000000E+00
  0.00000000E+00  0.00000000E+00  0.00000000E+00
  0.00000000E+00  0.00000000E+00  0.00000000E+00
  0.00000000E+00  0.00000000E+00  0.00000000E+00
