Ag-Mo-CO2                               
   1.00000000000000     
     8.7913665770999998    0.0000000000000000    0.0000000000000000
     4.3956832885999999    7.6135467898000000    0.0000000000000000
     0.0000000000000000    0.0000000000000000   24.3553720923146599
   Ag   Mo   C    O 
    35     1     1     2
Selective dynamics
Direct
  0.0000000000000000  0.0000000000000000  0.2168797964470528   F   F   F
  0.3333333129999971  0.0000000000000000  0.2168797964470528   F   F   F
  0.6666666269999979  0.0000000000000000  0.2168797964470528   F   F   F
  0.0000000000000000  0.3333333429999996  0.2168797964470528   F   F   F
  0.3333333129999971  0.3333333429999996  0.2168797964470528   F   F   F
  0.6666666870000029  0.3333333429999996  0.2168797964470528   F   F   F
  0.0000000000000000  0.6666666870000029  0.2168797964470528   F   F   F
  0.3333333129999971  0.6666666870000029  0.2168797964470528   F   F   F
  0.6666666269999979  0.6666666870000029  0.2168797964470528   F   F   F
  0.1111111040000026  0.1111111120000032  0.3151212519782476   F   F   F
  0.4444444479999987  0.1111111120000032  0.3151212519782476   F   F   F
  0.7777777909999983  0.1111111120000032  0.3151212519782476   F   F   F
  0.1111110969999984  0.4444444479999987  0.3151212519782476   F   F   F
  0.4444444180000033  0.4444444479999987  0.3151212519782476   F   F   F
  0.7777777909999983  0.4444444479999987  0.3151212519782476   F   F   F
  0.1111111040000026  0.7777777909999983  0.3151212519782476   F   F   F
  0.4444444479999987  0.7777777909999983  0.3151212519782476   F   F   F
  0.7777777909999983  0.7777777909999983  0.3151212519782476   F   F   F
  0.8888260676619595  0.2223478806760824  0.4131142156012899   F   F   F
  0.2223405740260276  0.2223405890260324  0.4118221736383489   F   F   F
  0.5553187919479470  0.2223405890260324  0.4118221736383489   F   F   F
  0.8884115466853828  0.5557942566573075  0.4131355026615822   F   F   F
  0.2223405890260324  0.5553188519479377  0.4118221736383489   F   F   F
  0.5557942566573075  0.5557942566573075  0.4131355026615822   F   F   F
  0.8888260676619595  0.8888260676619595  0.4131142156012899   F   F   F
  0.2223478506760728  0.8888260676619595  0.4131142156012899   F   F   F
  0.5557941966573097  0.8884115466853828  0.4131355026615822   F   F   F
  0.0000000000000000  0.0000000000000000  0.5106363459827534   F   F   F
  0.3331218294987224  0.0053033672307095  0.5118331440449566   F   F   F
  0.6615747432705703  0.0053033672307095  0.5118331440449566   F   F   F
  0.0053033672307095  0.3331218594987178  0.5118331440449566   F   F   F
  0.6615748032705824  0.3331218594987178  0.5118331440449566   F   F   F
  0.0053033672307095  0.6615748032705824  0.5118331440449566   F   F   F
  0.3331218294987224  0.6615748032705824  0.5118331440449566   F   F   F
  0.6666666269999979  0.6666666870000029  0.5106183968691909   F   F   F
  0.3333333129999971  0.3333333429999996  0.5027751021887070   F   F   F
  0.2629004037103400  0.2908714451442194  0.5811504411896493   T   T   T
  0.1925385421870374  0.2440880662328055  0.6153019354920062   T   T   T
  0.3576139539855632  0.3687044340326793  0.5857008361786953   T   T   T
 
  0.00000000E+00  0.00000000E+00  0.00000000E+00
  0.00000000E+00  0.00000000E+00  0.00000000E+00
  0.00000000E+00  0.00000000E+00  0.00000000E+00
  0.00000000E+00  0.00000000E+00  0.00000000E+00
  0.00000000E+00  0.00000000E+00  0.00000000E+00
  0.00000000E+00  0.00000000E+00  0.00000000E+00
  0.00000000E+00  0.00000000E+00  0.00000000E+00
  0.00000000E+00  0.00000000E+00  0.00000000E+00
  0.00000000E+00  0.00000000E+00  0.00000000E+00
  0.00000000E+00  0.00000000E+00  0.00000000E+00
  0.00000000E+00  0.00000000E+00  0.00000000E+00
  0.00000000E+00  0.00000000E+00  0.00000000E+00
  0.00000000E+00  0.00000000E+00  0.00000000E+00
  0.00000000E+00  0.00000000E+00  0.00000000E+00
  0.00000000E+00  0.00000000E+00  0.00000000E+00
  0.00000000E+00  0.00000000E+00  0.00000000E+00
  0.00000000E+00  0.00000000E+00  0.00000000E+00
  0.00000000E+00  0.00000000E+00  0.00000000E+00
  0.00000000E+00  0.00000000E+00  0.00000000E+00
  0.00000000E+00  0.00000000E+00  0.00000000E+00
  0.00000000E+00  0.00000000E+00  0.00000000E+00
  0.00000000E+00  0.00000000E+00  0.00000000E+00
  0.00000000E+00  0.00000000E+00  0.00000000E+00
  0.00000000E+00  0.00000000E+00  0.00000000E+00
  0.00000000E+00  0.00000000E+00  0.00000000E+00
  0.00000000E+00  0.00000000E+00  0.00000000E+00
  0.00000000E+00  0.00000000E+00  0.00000000E+00
  0.00000000E+00  0.00000000E+00  0.00000000E+00
  0.00000000E+00  0.00000000E+00  0.00000000E+00
  0.00000000E+00  0.00000000E+00  0.00000000E+00
  0.00000000E+00  0.00000000E+00  0.00000000E+00
  0.00000000E+00  0.00000000E+00  0.00000000E+00
  0.00000000E+00  0.00000000E+00  0.00000000E+00
  0.00000000E+00  0.00000000E+00  0.00000000E+00
  0.00000000E+00  0.00000000E+00  0.00000000E+00
  0.00000000E+00  0.00000000E+00  0.00000000E+00
  0.00000000E+00  0.00000000E+00  0.00000000E+00
  0.00000000E+00  0.00000000E+00  0.00000000E+00
  0.00000000E+00  0.00000000E+00  0.00000000E+00
