Cu-Zr-C                                 
   1.00000000000000     
     7.6967864037000000    0.0000000000000000    0.0000000000000000
     3.8483927580000001    6.6656128092999998    0.0000000000000000
     0.0000000000000000    0.0000000000000000   23.7897786731327727
   Cu   Zr   C 
    35     1     1
Selective dynamics
Direct
  0.0000000000000000  0.0000000000000000  0.2257927538771511   F   F   F
  0.3333333429999996  0.0000000000000000  0.2257927538771511   F   F   F
  0.6666666870000029  0.0000000000000000  0.2257927538771511   F   F   F
  0.0000000000000000  0.3333333429999996  0.2257927538771511   F   F   F
  0.3333333129999971  0.3333333429999996  0.2257927538771511   F   F   F
  0.6666666870000029  0.3333333429999996  0.2257927538771511   F   F   F
  0.0000000000000000  0.6666666870000029  0.2257927538771511   F   F   F
  0.3333333730000021  0.6666666870000029  0.2257927538771511   F   F   F
  0.6666666269999979  0.6666666870000029  0.2257927538771511   F   F   F
  0.1111111190000003  0.1111111120000032  0.3138473886514319   F   F   F
  0.4444444180000033  0.1111111120000032  0.3138473886514319   F   F   F
  0.7777777909999983  0.1111111120000032  0.3138473886514319   F   F   F
  0.1111111190000003  0.4444444479999987  0.3138473886514319   F   F   F
  0.4444444780000012  0.4444444479999987  0.3138473886514319   F   F   F
  0.7777777310000005  0.4444444479999987  0.3138473886514319   F   F   F
  0.1111111120000032  0.7777777310000005  0.3138473886514319   F   F   F
  0.4444444780000012  0.7777777310000005  0.3138473886514319   F   F   F
  0.7777778510000033  0.7777777310000005  0.3138473886514319   F   F   F
  0.8894062030487717  0.2211876099024508  0.4005594345339532   F   F   F
  0.2230973492669079  0.2230973342669103  0.4027354280079223   F   F   F
  0.5538053614661607  0.2230973342669103  0.4027354280079223   F   F   F
  0.8888583504486718  0.5555707947756616  0.4015107664889825   F   F   F
  0.2230973192669197  0.5538053014661628  0.4027354280079223   F   F   F
  0.5555708547756595  0.5555707947756616  0.4015107664889825   F   F   F
  0.8894062030487717  0.8894062030487717  0.4005594345339532   F   F   F
  0.2211876249024485  0.8894062030487717  0.4005594345339532   F   F   F
  0.5555707947756616  0.8888583504486718  0.4015107664889825   F   F   F
  0.0000000000000000  0.0000000000000000  0.4891871509911567   F   F   F
  0.3341594688826603  0.9936678558709673  0.4893228541408590   F   F   F
  0.6721727052463891  0.9936678558709673  0.4893228541408590   F   F   F
  0.9936678558709673  0.3341594688826603  0.4893228541408590   F   F   F
  0.6721727052463891  0.3341594688826603  0.4893228541408590   F   F   F
  0.9936678558709673  0.6721727052463891  0.4893228541408590   F   F   F
  0.3341594988826628  0.6721727052463891  0.4893228541408590   F   F   F
  0.6666666269999979  0.6666666870000029  0.4904118583880717   F   F   F
  0.3333333129999971  0.3333333429999996  0.5058011920134788   F   F   F
  0.3333333129999971  0.3333333429999996  0.5864725261108177   T   T   T
 
  0.00000000E+00  0.00000000E+00  0.00000000E+00
  0.00000000E+00  0.00000000E+00  0.00000000E+00
  0.00000000E+00  0.00000000E+00  0.00000000E+00
  0.00000000E+00  0.00000000E+00  0.00000000E+00
  0.00000000E+00  0.00000000E+00  0.00000000E+00
  0.00000000E+00  0.00000000E+00  0.00000000E+00
  0.00000000E+00  0.00000000E+00  0.00000000E+00
  0.00000000E+00  0.00000000E+00  0.00000000E+00
  0.00000000E+00  0.00000000E+00  0.00000000E+00
  0.00000000E+00  0.00000000E+00  0.00000000E+00
  0.00000000E+00  0.00000000E+00  0.00000000E+00
  0.00000000E+00  0.00000000E+00  0.00000000E+00
  0.00000000E+00  0.00000000E+00  0.00000000E+00
  0.00000000E+00  0.00000000E+00  0.00000000E+00
  0.00000000E+00  0.00000000E+00  0.00000000E+00
  0.00000000E+00  0.00000000E+00  0.00000000E+00
  0.00000000E+00  0.00000000E+00  0.00000000E+00
  0.00000000E+00  0.00000000E+00  0.00000000E+00
  0.00000000E+00  0.00000000E+00  0.00000000E+00
  0.00000000E+00  0.00000000E+00  0.00000000E+00
  0.00000000E+00  0.00000000E+00  0.00000000E+00
  0.00000000E+00  0.00000000E+00  0.00000000E+00
  0.00000000E+00  0.00000000E+00  0.00000000E+00
  0.00000000E+00  0.00000000E+00  0.00000000E+00
  0.00000000E+00  0.00000000E+00  0.00000000E+00
  0.00000000E+00  0.00000000E+00  0.00000000E+00
  0.00000000E+00  0.00000000E+00  0.00000000E+00
  0.00000000E+00  0.00000000E+00  0.00000000E+00
  0.00000000E+00  0.00000000E+00  0.00000000E+00
  0.00000000E+00  0.00000000E+00  0.00000000E+00
  0.00000000E+00  0.00000000E+00  0.00000000E+00
  0.00000000E+00  0.00000000E+00  0.00000000E+00
  0.00000000E+00  0.00000000E+00  0.00000000E+00
  0.00000000E+00  0.00000000E+00  0.00000000E+00
  0.00000000E+00  0.00000000E+00  0.00000000E+00
  0.00000000E+00  0.00000000E+00  0.00000000E+00
  0.00000000E+00  0.00000000E+00  0.00000000E+00
