Au-Mn-CO2                               
   1.00000000000000     
     8.8135128021000000    0.0000000000000000    0.0000000000000000
     4.4067569092000003    7.6327256898000000    0.0000000000000000
     0.0000000000000000    0.0000000000000000   24.3691142039813293
   Au   Mn   C    O 
    35     1     1     2
Selective dynamics
Direct
  0.0000000000000000  0.0000000000000000  0.2166832936481526   F   F   F
  0.3333333429999996  0.0000000000000000  0.2166832936481526   F   F   F
  0.6666666870000029  0.0000000000000000  0.2166832936481526   F   F   F
  0.0000000000000000  0.3333333429999996  0.2166832936481526   F   F   F
  0.3333333129999971  0.3333333429999996  0.2166832936481526   F   F   F
  0.6666666870000029  0.3333333429999996  0.2166832936481526   F   F   F
  0.0000000000000000  0.6666666870000029  0.2166832936481526   F   F   F
  0.3333333429999996  0.6666666870000029  0.2166832936481526   F   F   F
  0.6666666269999979  0.6666666870000029  0.2166832936481526   F   F   F
  0.1111111190000003  0.1111111120000032  0.3151166670001118   F   F   F
  0.4444444180000033  0.1111111120000032  0.3151166670001118   F   F   F
  0.7777777909999983  0.1111111120000032  0.3151166670001118   F   F   F
  0.1111111270000009  0.4444444479999987  0.3151166670001118   F   F   F
  0.4444444780000012  0.4444444479999987  0.3151166670001118   F   F   F
  0.7777777310000005  0.4444444479999987  0.3151166670001118   F   F   F
  0.1111110900000014  0.7777777909999983  0.3151166670001118   F   F   F
  0.4444444479999987  0.7777777909999983  0.3151166670001118   F   F   F
  0.7777778510000033  0.7777777909999983  0.3151166670001118   F   F   F
  0.8888975383637430  0.2222049392725012  0.4134244795092670   F   F   F
  0.2233740122997787  0.2233739972997810  0.4124031636301808   F   F   F
  0.5532520354004404  0.2233739972997810  0.4124031636301808   F   F   F
  0.8864637922595335  0.5567681338702286  0.4127404040865628   F   F   F
  0.2233739672997785  0.5532520354004404  0.4124031636301808   F   F   F
  0.5567681338702286  0.5567681338702286  0.4127404040865628   F   F   F
  0.8888975383637430  0.8888975383637430  0.4134244795092670   F   F   F
  0.2222049692724966  0.8888975383637430  0.4134244795092670   F   F   F
  0.5567680738702308  0.8864637922595335  0.4127404040865628   F   F   F
  0.0000000000000000  0.0000000000000000  0.5124412614437830   F   F   F
  0.3335216666197169  0.0102759252395614  0.5118957878375880   F   F   F
  0.6562024381407170  0.0102759252395614  0.5118957878375880   F   F   F
  0.0102759252395614  0.3335216666197169  0.5118957878375880   F   F   F
  0.6562024381407170  0.3335216666197169  0.5118957878375880   F   F   F
  0.0102759252395614  0.6562024381407170  0.5118957878375880   F   F   F
  0.3335216666197169  0.6562024381407170  0.5118957878375880   F   F   F
  0.6666666269999979  0.6666666870000029  0.5127560769756272   F   F   F
  0.3333333129999971  0.3333333429999996  0.4993344434546998   F   F   F
  0.3317639195968951  0.3316918094326766  0.6616148795665922   T   T   T
  0.1974411268806406  0.3333395968386128  0.6618813262107892   T   T   T
  0.4661132828965933  0.3299872865395841  0.6609617947575899   T   T   T
 
  0.00000000E+00  0.00000000E+00  0.00000000E+00
  0.00000000E+00  0.00000000E+00  0.00000000E+00
  0.00000000E+00  0.00000000E+00  0.00000000E+00
  0.00000000E+00  0.00000000E+00  0.00000000E+00
  0.00000000E+00  0.00000000E+00  0.00000000E+00
  0.00000000E+00  0.00000000E+00  0.00000000E+00
  0.00000000E+00  0.00000000E+00  0.00000000E+00
  0.00000000E+00  0.00000000E+00  0.00000000E+00
  0.00000000E+00  0.00000000E+00  0.00000000E+00
  0.00000000E+00  0.00000000E+00  0.00000000E+00
  0.00000000E+00  0.00000000E+00  0.00000000E+00
  0.00000000E+00  0.00000000E+00  0.00000000E+00
  0.00000000E+00  0.00000000E+00  0.00000000E+00
  0.00000000E+00  0.00000000E+00  0.00000000E+00
  0.00000000E+00  0.00000000E+00  0.00000000E+00
  0.00000000E+00  0.00000000E+00  0.00000000E+00
  0.00000000E+00  0.00000000E+00  0.00000000E+00
  0.00000000E+00  0.00000000E+00  0.00000000E+00
  0.00000000E+00  0.00000000E+00  0.00000000E+00
  0.00000000E+00  0.00000000E+00  0.00000000E+00
  0.00000000E+00  0.00000000E+00  0.00000000E+00
  0.00000000E+00  0.00000000E+00  0.00000000E+00
  0.00000000E+00  0.00000000E+00  0.00000000E+00
  0.00000000E+00  0.00000000E+00  0.00000000E+00
  0.00000000E+00  0.00000000E+00  0.00000000E+00
  0.00000000E+00  0.00000000E+00  0.00000000E+00
  0.00000000E+00  0.00000000E+00  0.00000000E+00
  0.00000000E+00  0.00000000E+00  0.00000000E+00
  0.00000000E+00  0.00000000E+00  0.00000000E+00
  0.00000000E+00  0.00000000E+00  0.00000000E+00
  0.00000000E+00  0.00000000E+00  0.00000000E+00
  0.00000000E+00  0.00000000E+00  0.00000000E+00
  0.00000000E+00  0.00000000E+00  0.00000000E+00
  0.00000000E+00  0.00000000E+00  0.00000000E+00
  0.00000000E+00  0.00000000E+00  0.00000000E+00
  0.00000000E+00  0.00000000E+00  0.00000000E+00
  0.00000000E+00  0.00000000E+00  0.00000000E+00
  0.00000000E+00  0.00000000E+00  0.00000000E+00
  0.00000000E+00  0.00000000E+00  0.00000000E+00
