Cu-Ru-H2O                               
   1.00000000000000     
     7.6967864037000000    0.0000000000000000    0.0000000000000000
     3.8483927580000001    6.6656128092999998    0.0000000000000000
     0.0000000000000000    0.0000000000000000   24.2721068936942466
   Cu   Ru   H    O 
    35     1     2     1
Selective dynamics
Direct
  0.0000000000000000  0.0000000000000000  0.2213058662052134   F   F   F
  0.3333333429999996  0.0000000000000000  0.2213058662052134   F   F   F
  0.6666666870000029  0.0000000000000000  0.2213058662052134   F   F   F
  0.0000000000000000  0.3333333429999996  0.2213058662052134   F   F   F
  0.3333333129999971  0.3333333429999996  0.2213058662052134   F   F   F
  0.6666666870000029  0.3333333429999996  0.2213058662052134   F   F   F
  0.0000000000000000  0.6666666870000029  0.2213058662052134   F   F   F
  0.3333333730000021  0.6666666870000029  0.2213058662052134   F   F   F
  0.6666666269999979  0.6666666870000029  0.2213058662052134   F   F   F
  0.1111111190000003  0.1111111120000032  0.3076107049898482   F   F   F
  0.4444444180000033  0.1111111120000032  0.3076107049898482   F   F   F
  0.7777777909999983  0.1111111120000032  0.3076107049898482   F   F   F
  0.1111111190000003  0.4444444479999987  0.3076107049898482   F   F   F
  0.4444444780000012  0.4444444479999987  0.3076107049898482   F   F   F
  0.7777777310000005  0.4444444479999987  0.3076107049898482   F   F   F
  0.1111111120000032  0.7777777310000005  0.3076107049898482   F   F   F
  0.4444444780000012  0.7777777310000005  0.3076107049898482   F   F   F
  0.7777778510000033  0.7777777310000005  0.3076107049898482   F   F   F
  0.8886717844144414  0.2226564471710972  0.3936760925398133   F   F   F
  0.2218480448631368  0.2218480298631391  0.3930429305902123   F   F   F
  0.5563039702737100  0.2218480298631391  0.3930429305902123   F   F   F
  0.8883450972653222  0.5558274213673400  0.3939809384172790   F   F   F
  0.2218480148631414  0.5563039102737122  0.3930429305902123   F   F   F
  0.5558274813673378  0.5558274213673400  0.3939809384172790   F   F   F
  0.8886717844144414  0.8886717844144414  0.3936760925398133   F   F   F
  0.2226564621711020  0.8886717844144414  0.3936760925398133   F   F   F
  0.5558274213673400  0.8883450972653222  0.3939809384172790   F   F   F
  0.0000000000000000  0.0000000000000000  0.4791955573625089   F   F   F
  0.3328522292506406  0.9992754802279507  0.4801937875782087   F   F   F
  0.6678723205214112  0.9992754802279507  0.4801937875782087   F   F   F
  0.9992754802279507  0.3328522292506406  0.4801937875782087   F   F   F
  0.6678723205214112  0.3328522292506406  0.4801937875782087   F   F   F
  0.9992754802279507  0.6678723205214112  0.4801937875782087   F   F   F
  0.3328522592506431  0.6678723205214112  0.4801937875782087   F   F   F
  0.6666666269999979  0.6666666870000029  0.4793632316990681   F   F   F
  0.3333333129999971  0.3333333429999996  0.4784457100219228   F   F   F
  0.2300123593727932  0.3334429033507291  0.5969000556827240   T   T   T
  0.4363938820506448  0.3333160856641868  0.5968689402182790   T   T   T
  0.3328237034235215  0.3340565749640518  0.5738997837858335   T   T   T
 
  0.00000000E+00  0.00000000E+00  0.00000000E+00
  0.00000000E+00  0.00000000E+00  0.00000000E+00
  0.00000000E+00  0.00000000E+00  0.00000000E+00
  0.00000000E+00  0.00000000E+00  0.00000000E+00
  0.00000000E+00  0.00000000E+00  0.00000000E+00
  0.00000000E+00  0.00000000E+00  0.00000000E+00
  0.00000000E+00  0.00000000E+00  0.00000000E+00
  0.00000000E+00  0.00000000E+00  0.00000000E+00
  0.00000000E+00  0.00000000E+00  0.00000000E+00
  0.00000000E+00  0.00000000E+00  0.00000000E+00
  0.00000000E+00  0.00000000E+00  0.00000000E+00
  0.00000000E+00  0.00000000E+00  0.00000000E+00
  0.00000000E+00  0.00000000E+00  0.00000000E+00
  0.00000000E+00  0.00000000E+00  0.00000000E+00
  0.00000000E+00  0.00000000E+00  0.00000000E+00
  0.00000000E+00  0.00000000E+00  0.00000000E+00
  0.00000000E+00  0.00000000E+00  0.00000000E+00
  0.00000000E+00  0.00000000E+00  0.00000000E+00
  0.00000000E+00  0.00000000E+00  0.00000000E+00
  0.00000000E+00  0.00000000E+00  0.00000000E+00
  0.00000000E+00  0.00000000E+00  0.00000000E+00
  0.00000000E+00  0.00000000E+00  0.00000000E+00
  0.00000000E+00  0.00000000E+00  0.00000000E+00
  0.00000000E+00  0.00000000E+00  0.00000000E+00
  0.00000000E+00  0.00000000E+00  0.00000000E+00
  0.00000000E+00  0.00000000E+00  0.00000000E+00
  0.00000000E+00  0.00000000E+00  0.00000000E+00
  0.00000000E+00  0.00000000E+00  0.00000000E+00
  0.00000000E+00  0.00000000E+00  0.00000000E+00
  0.00000000E+00  0.00000000E+00  0.00000000E+00
  0.00000000E+00  0.00000000E+00  0.00000000E+00
  0.00000000E+00  0.00000000E+00  0.00000000E+00
  0.00000000E+00  0.00000000E+00  0.00000000E+00
  0.00000000E+00  0.00000000E+00  0.00000000E+00
  0.00000000E+00  0.00000000E+00  0.00000000E+00
  0.00000000E+00  0.00000000E+00  0.00000000E+00
  0.00000000E+00  0.00000000E+00  0.00000000E+00
  0.00000000E+00  0.00000000E+00  0.00000000E+00
  0.00000000E+00  0.00000000E+00  0.00000000E+00
