Au-Ru-H2                                
   1.00000000000000     
     8.8135128021000000    0.0000000000000000    0.0000000000000000
     4.4067569092000003    7.6327256898000000    0.0000000000000000
     0.0000000000000000    0.0000000000000000   23.5681381941997543
   Au   Ru   H 
    35     1     2
Selective dynamics
Direct
  0.0000000000000000  0.0000000000000000  0.2240473933705189   F   F   F
  0.3333333429999996  0.0000000000000000  0.2240473933705189   F   F   F
  0.6666666870000029  0.0000000000000000  0.2240473933705189   F   F   F
  0.0000000000000000  0.3333333429999996  0.2240473933705189   F   F   F
  0.3333333129999971  0.3333333429999996  0.2240473933705189   F   F   F
  0.6666666870000029  0.3333333429999996  0.2240473933705189   F   F   F
  0.0000000000000000  0.6666666870000029  0.2240473933705189   F   F   F
  0.3333333429999996  0.6666666870000029  0.2240473933705189   F   F   F
  0.6666666269999979  0.6666666870000029  0.2240473933705189   F   F   F
  0.1111111190000003  0.1111111120000032  0.3258260785144884   F   F   F
  0.4444444180000033  0.1111111120000032  0.3258260785144884   F   F   F
  0.7777777909999983  0.1111111120000032  0.3258260785144884   F   F   F
  0.1111111270000009  0.4444444479999987  0.3258260785144884   F   F   F
  0.4444444780000012  0.4444444479999987  0.3258260785144884   F   F   F
  0.7777777310000005  0.4444444479999987  0.3258260785144884   F   F   F
  0.1111110900000014  0.7777777909999983  0.3258260785144884   F   F   F
  0.4444444479999987  0.7777777909999983  0.3258260785144884   F   F   F
  0.7777778510000033  0.7777777909999983  0.3258260785144884   F   F   F
  0.8888463503373174  0.2223073153253665  0.4275122611910191   F   F   F
  0.2225610744921482  0.2225610594921505  0.4260498100515875   F   F   F
  0.5548779110156872  0.2225610594921505  0.4260498100515875   F   F   F
  0.8866316819546896  0.5566841890226470  0.4269727656036224   F   F   F
  0.2225610294921481  0.5548779110156872  0.4260498100515875   F   F   F
  0.5566841890226470  0.5566841890226470  0.4269727656036224   F   F   F
  0.8888463503373174  0.8888463503373174  0.4275122611910191   F   F   F
  0.2223073453253690  0.8888463503373174  0.4275122611910191   F   F   F
  0.5566841290226634  0.8866316819546896  0.4269727656036224   F   F   F
  0.0000000000000000  0.0000000000000000  0.5301476909697769   F   F   F
  0.3332495806553908  0.0066113765016027  0.5294594810928572   F   F   F
  0.6601390728430232  0.0066113765016027  0.5294594810928572   F   F   F
  0.0066113765016027  0.3332495806553908  0.5294594810928572   F   F   F
  0.6601390728430232  0.3332495806553908  0.5294594810928572   F   F   F
  0.0066113765016027  0.6601390728430232  0.5294594810928572   F   F   F
  0.3332495806553908  0.6601390728430232  0.5294594810928572   F   F   F
  0.6666666269999979  0.6666666870000029  0.5301881132250301   F   F   F
  0.3333333129999971  0.3333333429999996  0.5194294108638786   F   F   F
  0.2808852269210576  0.3288159429042565  0.5875949134842813   T   T   T
  0.3902987991746798  0.3288159429042565  0.5875949134842813   T   T   T
 
  0.00000000E+00  0.00000000E+00  0.00000000E+00
  0.00000000E+00  0.00000000E+00  0.00000000E+00
  0.00000000E+00  0.00000000E+00  0.00000000E+00
  0.00000000E+00  0.00000000E+00  0.00000000E+00
  0.00000000E+00  0.00000000E+00  0.00000000E+00
  0.00000000E+00  0.00000000E+00  0.00000000E+00
  0.00000000E+00  0.00000000E+00  0.00000000E+00
  0.00000000E+00  0.00000000E+00  0.00000000E+00
  0.00000000E+00  0.00000000E+00  0.00000000E+00
  0.00000000E+00  0.00000000E+00  0.00000000E+00
  0.00000000E+00  0.00000000E+00  0.00000000E+00
  0.00000000E+00  0.00000000E+00  0.00000000E+00
  0.00000000E+00  0.00000000E+00  0.00000000E+00
  0.00000000E+00  0.00000000E+00  0.00000000E+00
  0.00000000E+00  0.00000000E+00  0.00000000E+00
  0.00000000E+00  0.00000000E+00  0.00000000E+00
  0.00000000E+00  0.00000000E+00  0.00000000E+00
  0.00000000E+00  0.00000000E+00  0.00000000E+00
  0.00000000E+00  0.00000000E+00  0.00000000E+00
  0.00000000E+00  0.00000000E+00  0.00000000E+00
  0.00000000E+00  0.00000000E+00  0.00000000E+00
  0.00000000E+00  0.00000000E+00  0.00000000E+00
  0.00000000E+00  0.00000000E+00  0.00000000E+00
  0.00000000E+00  0.00000000E+00  0.00000000E+00
  0.00000000E+00  0.00000000E+00  0.00000000E+00
  0.00000000E+00  0.00000000E+00  0.00000000E+00
  0.00000000E+00  0.00000000E+00  0.00000000E+00
  0.00000000E+00  0.00000000E+00  0.00000000E+00
  0.00000000E+00  0.00000000E+00  0.00000000E+00
  0.00000000E+00  0.00000000E+00  0.00000000E+00
  0.00000000E+00  0.00000000E+00  0.00000000E+00
  0.00000000E+00  0.00000000E+00  0.00000000E+00
  0.00000000E+00  0.00000000E+00  0.00000000E+00
  0.00000000E+00  0.00000000E+00  0.00000000E+00
  0.00000000E+00  0.00000000E+00  0.00000000E+00
  0.00000000E+00  0.00000000E+00  0.00000000E+00
  0.00000000E+00  0.00000000E+00  0.00000000E+00
  0.00000000E+00  0.00000000E+00  0.00000000E+00
