Cu-Os-OOH                               
   1.00000000000000     
     7.6967864037000000    0.0000000000000000    0.0000000000000000
     3.8483927580000001    6.6656128092999998    0.0000000000000000
     0.0000000000000000    0.0000000000000000   25.3788956433894519
   Cu   Os   O    H 
    35     1     2     1
Selective dynamics
Direct
  0.0000000000000000  0.0000000000000000  0.2116545856136796   F   F   F
  0.3333333429999996  0.0000000000000000  0.2116545856136796   F   F   F
  0.6666666870000029  0.0000000000000000  0.2116545856136796   F   F   F
  0.0000000000000000  0.3333333429999996  0.2116545856136796   F   F   F
  0.3333333129999971  0.3333333429999996  0.2116545856136796   F   F   F
  0.6666666870000029  0.3333333429999996  0.2116545856136796   F   F   F
  0.0000000000000000  0.6666666870000029  0.2116545856136796   F   F   F
  0.3333333730000021  0.6666666870000029  0.2116545856136796   F   F   F
  0.6666666269999979  0.6666666870000029  0.2116545856136796   F   F   F
  0.1111111190000003  0.1111111120000032  0.2941956189927097   F   F   F
  0.4444444180000033  0.1111111120000032  0.2941956189927097   F   F   F
  0.7777777909999983  0.1111111120000032  0.2941956189927097   F   F   F
  0.1111111190000003  0.4444444479999987  0.2941956189927097   F   F   F
  0.4444444780000012  0.4444444479999987  0.2941956189927097   F   F   F
  0.7777777310000005  0.4444444479999987  0.2941956189927097   F   F   F
  0.1111111120000032  0.7777777310000005  0.2941956189927097   F   F   F
  0.4444444780000012  0.7777777310000005  0.2941956189927097   F   F   F
  0.7777778510000033  0.7777777310000005  0.2941956189927097   F   F   F
  0.8884896078157212  0.2230208003685590  0.3768484075233900   F   F   F
  0.2212247527015379  0.2212247377015402  0.3755047291961233   F   F   F
  0.5575505545969222  0.2212247377015402  0.3755047291961233   F   F   F
  0.8878356294135230  0.5560821552932396  0.3768981787215395   F   F   F
  0.2212247227015425  0.5575504945969172  0.3755047291961233   F   F   F
  0.5560822152932374  0.5560821552932396  0.3768981787215395   F   F   F
  0.8884896078157212  0.8884896078157212  0.3768484075233900   F   F   F
  0.2230208153685567  0.8884896078157212  0.3768484075233900   F   F   F
  0.5560821552932396  0.8878356294135230  0.3768981787215395   F   F   F
  0.0000000000000000  0.0000000000000000  0.4587211376180420   F   F   F
  0.3326620008895986  0.0003628447085475  0.4599310948439594   F   F   F
  0.6669751844018634  0.0003628447085475  0.4599310948439594   F   F   F
  0.0003628447085475  0.3326620008895986  0.4599310948439594   F   F   F
  0.6669751844018634  0.3326620008895986  0.4599310948439594   F   F   F
  0.0003628447085475  0.6669751844018634  0.4599310948439594   F   F   F
  0.3326620308896011  0.6669751844018634  0.4599310948439594   F   F   F
  0.6666666269999979  0.6666666870000029  0.4586625820197270   F   F   F
  0.3333333129999971  0.3333333429999996  0.4561188510419427   F   F   F
  0.3382505613855876  0.3409913083897953  0.5252669579177354   T   T   T
  0.1039990196371454  0.1012822143056270  0.5150499509391337   T   T   T
  0.1000268857617538  0.0959212106440016  0.5533127729949210   T   T   T
 
  0.00000000E+00  0.00000000E+00  0.00000000E+00
  0.00000000E+00  0.00000000E+00  0.00000000E+00
  0.00000000E+00  0.00000000E+00  0.00000000E+00
  0.00000000E+00  0.00000000E+00  0.00000000E+00
  0.00000000E+00  0.00000000E+00  0.00000000E+00
  0.00000000E+00  0.00000000E+00  0.00000000E+00
  0.00000000E+00  0.00000000E+00  0.00000000E+00
  0.00000000E+00  0.00000000E+00  0.00000000E+00
  0.00000000E+00  0.00000000E+00  0.00000000E+00
  0.00000000E+00  0.00000000E+00  0.00000000E+00
  0.00000000E+00  0.00000000E+00  0.00000000E+00
  0.00000000E+00  0.00000000E+00  0.00000000E+00
  0.00000000E+00  0.00000000E+00  0.00000000E+00
  0.00000000E+00  0.00000000E+00  0.00000000E+00
  0.00000000E+00  0.00000000E+00  0.00000000E+00
  0.00000000E+00  0.00000000E+00  0.00000000E+00
  0.00000000E+00  0.00000000E+00  0.00000000E+00
  0.00000000E+00  0.00000000E+00  0.00000000E+00
  0.00000000E+00  0.00000000E+00  0.00000000E+00
  0.00000000E+00  0.00000000E+00  0.00000000E+00
  0.00000000E+00  0.00000000E+00  0.00000000E+00
  0.00000000E+00  0.00000000E+00  0.00000000E+00
  0.00000000E+00  0.00000000E+00  0.00000000E+00
  0.00000000E+00  0.00000000E+00  0.00000000E+00
  0.00000000E+00  0.00000000E+00  0.00000000E+00
  0.00000000E+00  0.00000000E+00  0.00000000E+00
  0.00000000E+00  0.00000000E+00  0.00000000E+00
  0.00000000E+00  0.00000000E+00  0.00000000E+00
  0.00000000E+00  0.00000000E+00  0.00000000E+00
  0.00000000E+00  0.00000000E+00  0.00000000E+00
  0.00000000E+00  0.00000000E+00  0.00000000E+00
  0.00000000E+00  0.00000000E+00  0.00000000E+00
  0.00000000E+00  0.00000000E+00  0.00000000E+00
  0.00000000E+00  0.00000000E+00  0.00000000E+00
  0.00000000E+00  0.00000000E+00  0.00000000E+00
  0.00000000E+00  0.00000000E+00  0.00000000E+00
  0.00000000E+00  0.00000000E+00  0.00000000E+00
  0.00000000E+00  0.00000000E+00  0.00000000E+00
  0.00000000E+00  0.00000000E+00  0.00000000E+00
