Ag-Re-H2                                
   1.00000000000000     
     8.7913665770999998    0.0000000000000000    0.0000000000000000
     4.3956832885999999    7.6135467898000000    0.0000000000000000
     0.0000000000000000    0.0000000000000000   23.7842313128392888
   Ag   Re   H 
    35     1     2
Selective dynamics
Direct
  0.0000000000000000  0.0000000000000000  0.2220878224860598   F   F   F
  0.3333333129999971  0.0000000000000000  0.2220878224860598   F   F   F
  0.6666666269999979  0.0000000000000000  0.2220878224860598   F   F   F
  0.0000000000000000  0.3333333429999996  0.2220878224860598   F   F   F
  0.3333333129999971  0.3333333429999996  0.2220878224860598   F   F   F
  0.6666666870000029  0.3333333429999996  0.2220878224860598   F   F   F
  0.0000000000000000  0.6666666870000029  0.2220878224860598   F   F   F
  0.3333333129999971  0.6666666870000029  0.2220878224860598   F   F   F
  0.6666666269999979  0.6666666870000029  0.2220878224860598   F   F   F
  0.1111111040000026  0.1111111120000032  0.3226883915303702   F   F   F
  0.4444444479999987  0.1111111120000032  0.3226883915303702   F   F   F
  0.7777777909999983  0.1111111120000032  0.3226883915303702   F   F   F
  0.1111110969999984  0.4444444479999987  0.3226883915303702   F   F   F
  0.4444444180000033  0.4444444479999987  0.3226883915303702   F   F   F
  0.7777777909999983  0.4444444479999987  0.3226883915303702   F   F   F
  0.1111111040000026  0.7777777909999983  0.3226883915303702   F   F   F
  0.4444444479999987  0.7777777909999983  0.3226883915303702   F   F   F
  0.7777777909999983  0.7777777909999983  0.3226883915303702   F   F   F
  0.8885374747334680  0.2229250665330511  0.4232946021029917   F   F   F
  0.2221495139031404  0.2221495289031381  0.4213363387417175   F   F   F
  0.5557009121937071  0.2221495289031381  0.4213363387417175   F   F   F
  0.8879816083280616  0.5560092258359575  0.4228415423012777   F   F   F
  0.2221495289031381  0.5557009721937121  0.4213363387417175   F   F   F
  0.5560092258359575  0.5560092258359575  0.4228415423012777   F   F   F
  0.8885374747334680  0.8885374747334680  0.4232946021029917   F   F   F
  0.2229250365330486  0.8885374747334680  0.4232946021029917   F   F   F
  0.5560091658359596  0.8879816083280616  0.4228415423012777   F   F   F
  0.0000000000000000  0.0000000000000000  0.5226321358649173   F   F   F
  0.3330302481591687  0.0077223461327094  0.5240586993191130   F   F   F
  0.6592473457081311  0.0077223461327094  0.5240586993191130   F   F   F
  0.0077223461327094  0.3330302781591783  0.5240586993191130   F   F   F
  0.6592474057081290  0.3330302781591783  0.5240586993191130   F   F   F
  0.0077223461327094  0.6592474057081290  0.5240586993191130   F   F   F
  0.3330302481591687  0.6592474057081290  0.5240586993191130   F   F   F
  0.6666666269999979  0.6666666870000029  0.5224269493618081   F   F   F
  0.3333333129999971  0.3333333429999996  0.5128938389470434   F   F   F
  0.2530144983916998  0.2925881559993400  0.5719675774804855   T   T   T
  0.4543973146089684  0.2925881559993400  0.5719675774804855   T   T   T
 
  0.00000000E+00  0.00000000E+00  0.00000000E+00
  0.00000000E+00  0.00000000E+00  0.00000000E+00
  0.00000000E+00  0.00000000E+00  0.00000000E+00
  0.00000000E+00  0.00000000E+00  0.00000000E+00
  0.00000000E+00  0.00000000E+00  0.00000000E+00
  0.00000000E+00  0.00000000E+00  0.00000000E+00
  0.00000000E+00  0.00000000E+00  0.00000000E+00
  0.00000000E+00  0.00000000E+00  0.00000000E+00
  0.00000000E+00  0.00000000E+00  0.00000000E+00
  0.00000000E+00  0.00000000E+00  0.00000000E+00
  0.00000000E+00  0.00000000E+00  0.00000000E+00
  0.00000000E+00  0.00000000E+00  0.00000000E+00
  0.00000000E+00  0.00000000E+00  0.00000000E+00
  0.00000000E+00  0.00000000E+00  0.00000000E+00
  0.00000000E+00  0.00000000E+00  0.00000000E+00
  0.00000000E+00  0.00000000E+00  0.00000000E+00
  0.00000000E+00  0.00000000E+00  0.00000000E+00
  0.00000000E+00  0.00000000E+00  0.00000000E+00
  0.00000000E+00  0.00000000E+00  0.00000000E+00
  0.00000000E+00  0.00000000E+00  0.00000000E+00
  0.00000000E+00  0.00000000E+00  0.00000000E+00
  0.00000000E+00  0.00000000E+00  0.00000000E+00
  0.00000000E+00  0.00000000E+00  0.00000000E+00
  0.00000000E+00  0.00000000E+00  0.00000000E+00
  0.00000000E+00  0.00000000E+00  0.00000000E+00
  0.00000000E+00  0.00000000E+00  0.00000000E+00
  0.00000000E+00  0.00000000E+00  0.00000000E+00
  0.00000000E+00  0.00000000E+00  0.00000000E+00
  0.00000000E+00  0.00000000E+00  0.00000000E+00
  0.00000000E+00  0.00000000E+00  0.00000000E+00
  0.00000000E+00  0.00000000E+00  0.00000000E+00
  0.00000000E+00  0.00000000E+00  0.00000000E+00
  0.00000000E+00  0.00000000E+00  0.00000000E+00
  0.00000000E+00  0.00000000E+00  0.00000000E+00
  0.00000000E+00  0.00000000E+00  0.00000000E+00
  0.00000000E+00  0.00000000E+00  0.00000000E+00
  0.00000000E+00  0.00000000E+00  0.00000000E+00
  0.00000000E+00  0.00000000E+00  0.00000000E+00
