Ag-Ir                                   
   1.00000000000000     
     8.7913665770999998    0.0000000000000000    0.0000000000000000
     4.3956832885999999    7.6135467898000000    0.0000000000000000
     0.0000000000000000    0.0000000000000000   22.1781215668000016
   Ag   Ir
    35     1
Selective dynamics
Direct
  0.0000000000000000  0.0000000000000000  0.2381711239999973   F   F   F
  0.3333333129999971  0.0000000000000000  0.2381711239999973   F   F   F
  0.6666666269999979  0.0000000000000000  0.2381711239999973   F   F   F
  0.0000000000000000  0.3333333429999996  0.2381711239999973   F   F   F
  0.3333333129999971  0.3333333429999996  0.2381711239999973   F   F   F
  0.6666666870000029  0.3333333429999996  0.2381711239999973   F   F   F
  0.0000000000000000  0.6666666870000029  0.2381711239999973   F   F   F
  0.3333333129999971  0.6666666870000029  0.2381711239999973   F   F   F
  0.6666666269999979  0.6666666870000029  0.2381711239999973   F   F   F
  0.1111111040000026  0.1111111120000032  0.3460570510000025   F   F   F
  0.4444444479999987  0.1111111120000032  0.3460570510000025   F   F   F
  0.7777777909999983  0.1111111120000032  0.3460570510000025   F   F   F
  0.1111110969999984  0.4444444479999987  0.3460570510000025   F   F   F
  0.4444444180000033  0.4444444479999987  0.3460570510000025   F   F   F
  0.7777777909999983  0.4444444479999987  0.3460570510000025   F   F   F
  0.1111111040000026  0.7777777909999983  0.3460570510000025   F   F   F
  0.4444444479999987  0.7777777909999983  0.3460570510000025   F   F   F
  0.7777777909999983  0.7777777909999983  0.3460570510000025   F   F   F
  0.8883527369991145  0.2232945420017722  0.4539830172420138   T   T   T
  0.2219279207052495  0.2219279357052472  0.4519262180612318   T   T   T
  0.5561440985895031  0.2219279357052472  0.4519262180612318   T   T   T
  0.8882489383328217  0.5558755608335881  0.4532328626900436   T   T   T
  0.2219279357052472  0.5561441585895009  0.4519262180612318   T   T   T
  0.5558755608335881  0.5558755608335881  0.4532328626900436   T   T   T
  0.8883527369991145  0.8883527369991145  0.4539830172420138   T   T   T
  0.2232945120017698  0.8883527369991145  0.4539830172420138   T   T   T
  0.5558755008335903  0.8882489383328217  0.4532328626900436   T   T   T
  0.0000000000000000  0.0000000000000000  0.5601088003853100   T   T   T
  0.3331020944374804  0.0065382780879236  0.5608406437315673   T   T   T
  0.6603595674745981  0.0065382780879236  0.5608406437315673   T   T   T
  0.0065382780879236  0.3331021244374829  0.5608406437315673   T   T   T
  0.6603596274746031  0.3331021244374829  0.5608406437315673   T   T   T
  0.0065382780879236  0.6603596274746031  0.5608406437315673   T   T   T
  0.3331020944374804  0.6603596274746031  0.5608406437315673   T   T   T
  0.6666666269999979  0.6666666870000029  0.5596351870688639   T   T   T
  0.3333333129999971  0.3333333429999996  0.5507089246812352   T   T   T
 
  0.00000000E+00  0.00000000E+00  0.00000000E+00
  0.00000000E+00  0.00000000E+00  0.00000000E+00
  0.00000000E+00  0.00000000E+00  0.00000000E+00
  0.00000000E+00  0.00000000E+00  0.00000000E+00
  0.00000000E+00  0.00000000E+00  0.00000000E+00
  0.00000000E+00  0.00000000E+00  0.00000000E+00
  0.00000000E+00  0.00000000E+00  0.00000000E+00
  0.00000000E+00  0.00000000E+00  0.00000000E+00
  0.00000000E+00  0.00000000E+00  0.00000000E+00
  0.00000000E+00  0.00000000E+00  0.00000000E+00
  0.00000000E+00  0.00000000E+00  0.00000000E+00
  0.00000000E+00  0.00000000E+00  0.00000000E+00
  0.00000000E+00  0.00000000E+00  0.00000000E+00
  0.00000000E+00  0.00000000E+00  0.00000000E+00
  0.00000000E+00  0.00000000E+00  0.00000000E+00
  0.00000000E+00  0.00000000E+00  0.00000000E+00
  0.00000000E+00  0.00000000E+00  0.00000000E+00
  0.00000000E+00  0.00000000E+00  0.00000000E+00
  0.00000000E+00  0.00000000E+00  0.00000000E+00
  0.00000000E+00  0.00000000E+00  0.00000000E+00
  0.00000000E+00  0.00000000E+00  0.00000000E+00
  0.00000000E+00  0.00000000E+00  0.00000000E+00
  0.00000000E+00  0.00000000E+00  0.00000000E+00
  0.00000000E+00  0.00000000E+00  0.00000000E+00
  0.00000000E+00  0.00000000E+00  0.00000000E+00
  0.00000000E+00  0.00000000E+00  0.00000000E+00
  0.00000000E+00  0.00000000E+00  0.00000000E+00
  0.00000000E+00  0.00000000E+00  0.00000000E+00
  0.00000000E+00  0.00000000E+00  0.00000000E+00
  0.00000000E+00  0.00000000E+00  0.00000000E+00
  0.00000000E+00  0.00000000E+00  0.00000000E+00
  0.00000000E+00  0.00000000E+00  0.00000000E+00
  0.00000000E+00  0.00000000E+00  0.00000000E+00
  0.00000000E+00  0.00000000E+00  0.00000000E+00
  0.00000000E+00  0.00000000E+00  0.00000000E+00
  0.00000000E+00  0.00000000E+00  0.00000000E+00
