Au-Nb-COH                               
   1.00000000000000     
     8.8135128021000000    0.0000000000000000    0.0000000000000000
     4.4067569092000003    7.6327256898000000    0.0000000000000000
     0.0000000000000000    0.0000000000000000   26.7549911976187857
   Au   Nb   C    O    H 
    35     1     1     1     1
Selective dynamics
Direct
  0.0000000000000000  0.0000000000000000  0.1973605556437903   F   F   F
  0.3333333429999996  0.0000000000000000  0.1973605556437903   F   F   F
  0.6666666870000029  0.0000000000000000  0.1973605556437903   F   F   F
  0.0000000000000000  0.3333333429999996  0.1973605556437903   F   F   F
  0.3333333129999971  0.3333333429999996  0.1973605556437903   F   F   F
  0.6666666870000029  0.3333333429999996  0.1973605556437903   F   F   F
  0.0000000000000000  0.6666666870000029  0.1973605556437903   F   F   F
  0.3333333429999996  0.6666666870000029  0.1973605556437903   F   F   F
  0.6666666269999979  0.6666666870000029  0.1973605556437903   F   F   F
  0.1111111190000003  0.1111111120000032  0.2870161305224883   F   F   F
  0.4444444180000033  0.1111111120000032  0.2870161305224883   F   F   F
  0.7777777909999983  0.1111111120000032  0.2870161305224883   F   F   F
  0.1111111270000009  0.4444444479999987  0.2870161305224883   F   F   F
  0.4444444780000012  0.4444444479999987  0.2870161305224883   F   F   F
  0.7777777310000005  0.4444444479999987  0.2870161305224883   F   F   F
  0.1111110900000014  0.7777777909999983  0.2870161305224883   F   F   F
  0.4444444479999987  0.7777777909999983  0.2870161305224883   F   F   F
  0.7777778510000033  0.7777777909999983  0.2870161305224883   F   F   F
  0.8886180228257601  0.2227639703484670  0.3770131370523870   F   F   F
  0.2220098510847492  0.2220098360847516  0.3755323402420885   F   F   F
  0.5559803578304994  0.2220098360847516  0.3755323402420885   F   F   F
  0.8866699189578924  0.5566650705210492  0.3763369128390082   F   F   F
  0.2220098060847491  0.5559803578304994  0.3755323402420885   F   F   F
  0.5566650705210492  0.5566650705210492  0.3763369128390082   F   F   F
  0.8886180228257601  0.8886180228257601  0.3770131370523870   F   F   F
  0.2227640003484765  0.8886180228257601  0.3770131370523870   F   F   F
  0.5566650105210513  0.8866699189578924  0.3763369128390082   F   F   F
  0.0000000000000000  0.0000000000000000  0.4671811273596873   F   F   F
  0.3337457840917821  0.0091833038679709  0.4693137582140920   F   F   F
  0.6570709420402565  0.0091833038679709  0.4693137582140920   F   F   F
  0.0091833038679709  0.3337457840917821  0.4693137582140920   F   F   F
  0.6570709420402565  0.3337457840917821  0.4693137582140920   F   F   F
  0.0091833038679709  0.6570709420402565  0.4693137582140920   F   F   F
  0.3337457840917821  0.6570709420402565  0.4693137582140920   F   F   F
  0.6666666269999979  0.6666666870000029  0.4673885978698422   F   F   F
  0.3333333129999971  0.3333333429999996  0.4576408707543607   F   F   F
  0.3333333129999971  0.3333333429999996  0.5294495776107950   T   T   T
  0.3333333129999971  0.3333333429999996  0.5765090018478629   T   T   T
  0.3333333129999971  0.3333333429999996  0.6122705016848127   T   T   T
 
  0.00000000E+00  0.00000000E+00  0.00000000E+00
  0.00000000E+00  0.00000000E+00  0.00000000E+00
  0.00000000E+00  0.00000000E+00  0.00000000E+00
  0.00000000E+00  0.00000000E+00  0.00000000E+00
  0.00000000E+00  0.00000000E+00  0.00000000E+00
  0.00000000E+00  0.00000000E+00  0.00000000E+00
  0.00000000E+00  0.00000000E+00  0.00000000E+00
  0.00000000E+00  0.00000000E+00  0.00000000E+00
  0.00000000E+00  0.00000000E+00  0.00000000E+00
  0.00000000E+00  0.00000000E+00  0.00000000E+00
  0.00000000E+00  0.00000000E+00  0.00000000E+00
  0.00000000E+00  0.00000000E+00  0.00000000E+00
  0.00000000E+00  0.00000000E+00  0.00000000E+00
  0.00000000E+00  0.00000000E+00  0.00000000E+00
  0.00000000E+00  0.00000000E+00  0.00000000E+00
  0.00000000E+00  0.00000000E+00  0.00000000E+00
  0.00000000E+00  0.00000000E+00  0.00000000E+00
  0.00000000E+00  0.00000000E+00  0.00000000E+00
  0.00000000E+00  0.00000000E+00  0.00000000E+00
  0.00000000E+00  0.00000000E+00  0.00000000E+00
  0.00000000E+00  0.00000000E+00  0.00000000E+00
  0.00000000E+00  0.00000000E+00  0.00000000E+00
  0.00000000E+00  0.00000000E+00  0.00000000E+00
  0.00000000E+00  0.00000000E+00  0.00000000E+00
  0.00000000E+00  0.00000000E+00  0.00000000E+00
  0.00000000E+00  0.00000000E+00  0.00000000E+00
  0.00000000E+00  0.00000000E+00  0.00000000E+00
  0.00000000E+00  0.00000000E+00  0.00000000E+00
  0.00000000E+00  0.00000000E+00  0.00000000E+00
  0.00000000E+00  0.00000000E+00  0.00000000E+00
  0.00000000E+00  0.00000000E+00  0.00000000E+00
  0.00000000E+00  0.00000000E+00  0.00000000E+00
  0.00000000E+00  0.00000000E+00  0.00000000E+00
  0.00000000E+00  0.00000000E+00  0.00000000E+00
  0.00000000E+00  0.00000000E+00  0.00000000E+00
  0.00000000E+00  0.00000000E+00  0.00000000E+00
  0.00000000E+00  0.00000000E+00  0.00000000E+00
  0.00000000E+00  0.00000000E+00  0.00000000E+00
  0.00000000E+00  0.00000000E+00  0.00000000E+00
