Cu-Ta-COH                               
   1.00000000000000     
     7.6967864037000000    0.0000000000000000    0.0000000000000000
     3.8483927580000001    6.6656128092999998    0.0000000000000000
     0.0000000000000000    0.0000000000000000   26.1310625667187750
   Cu   Ta   C    O    H 
    35     1     1     1     1
Selective dynamics
Direct
  0.0000000000000000  0.0000000000000000  0.2055622356350710   F   F   F
  0.3333333429999996  0.0000000000000000  0.2055622356350710   F   F   F
  0.6666666870000029  0.0000000000000000  0.2055622356350710   F   F   F
  0.0000000000000000  0.3333333429999996  0.2055622356350710   F   F   F
  0.3333333129999971  0.3333333429999996  0.2055622356350710   F   F   F
  0.6666666870000029  0.3333333429999996  0.2055622356350710   F   F   F
  0.0000000000000000  0.6666666870000029  0.2055622356350710   F   F   F
  0.3333333730000021  0.6666666870000029  0.2055622356350710   F   F   F
  0.6666666269999979  0.6666666870000029  0.2055622356350710   F   F   F
  0.1111111190000003  0.1111111120000032  0.2857273750003415   F   F   F
  0.4444444180000033  0.1111111120000032  0.2857273750003415   F   F   F
  0.7777777909999983  0.1111111120000032  0.2857273750003415   F   F   F
  0.1111111190000003  0.4444444479999987  0.2857273750003415   F   F   F
  0.4444444780000012  0.4444444479999987  0.2857273750003415   F   F   F
  0.7777777310000005  0.4444444479999987  0.2857273750003415   F   F   F
  0.1111111120000032  0.7777777310000005  0.2857273750003415   F   F   F
  0.4444444780000012  0.7777777310000005  0.2857273750003415   F   F   F
  0.7777778510000033  0.7777777310000005  0.2857273750003415   F   F   F
  0.8889207598748001  0.2221584962504011  0.3655369340423889   F   F   F
  0.2217025894100217  0.2217025744100170  0.3654835415370385   F   F   F
  0.5565948811799473  0.2217025744100170  0.3654835415370385   F   F   F
  0.8883591808017925  0.5558203795990977  0.3662026723644871   F   F   F
  0.2217025594100335  0.5565948211799494  0.3654835415370385   F   F   F
  0.5558204395991027  0.5558203795990977  0.3662026723644871   F   F   F
  0.8889207598748001  0.8889207598748001  0.3655369340423889   F   F   F
  0.2221585112503988  0.8889207598748001  0.3655369340423889   F   F   F
  0.5558203795990977  0.8883591808017925  0.3662026723644871   F   F   F
  0.0000000000000000  0.0000000000000000  0.4460828886717394   F   F   F
  0.3333224260259868  0.9970181910957621  0.4473873319200479   F   F   F
  0.6696594128782465  0.9970181910957621  0.4473873319200479   F   F   F
  0.9970181910957621  0.3333224260259868  0.4473873319200479   F   F   F
  0.6696594128782465  0.3333224260259868  0.4473873319200479   F   F   F
  0.9970181910957621  0.6696594128782465  0.4473873319200479   F   F   F
  0.3333224560260035  0.6696594128782465  0.4473873319200479   F   F   F
  0.6666666269999979  0.6666666870000029  0.4468458178604280   F   F   F
  0.3333333129999971  0.3333333429999996  0.4474961321896700   F   F   F
  0.3333333129999971  0.3333333429999996  0.5218934679413323   T   T   T
  0.3333333129999971  0.3333333429999996  0.5704692176893786   T   T   T
  0.3333333129999971  0.3333333429999996  0.6070234711542426   T   T   T
 
  0.00000000E+00  0.00000000E+00  0.00000000E+00
  0.00000000E+00  0.00000000E+00  0.00000000E+00
  0.00000000E+00  0.00000000E+00  0.00000000E+00
  0.00000000E+00  0.00000000E+00  0.00000000E+00
  0.00000000E+00  0.00000000E+00  0.00000000E+00
  0.00000000E+00  0.00000000E+00  0.00000000E+00
  0.00000000E+00  0.00000000E+00  0.00000000E+00
  0.00000000E+00  0.00000000E+00  0.00000000E+00
  0.00000000E+00  0.00000000E+00  0.00000000E+00
  0.00000000E+00  0.00000000E+00  0.00000000E+00
  0.00000000E+00  0.00000000E+00  0.00000000E+00
  0.00000000E+00  0.00000000E+00  0.00000000E+00
  0.00000000E+00  0.00000000E+00  0.00000000E+00
  0.00000000E+00  0.00000000E+00  0.00000000E+00
  0.00000000E+00  0.00000000E+00  0.00000000E+00
  0.00000000E+00  0.00000000E+00  0.00000000E+00
  0.00000000E+00  0.00000000E+00  0.00000000E+00
  0.00000000E+00  0.00000000E+00  0.00000000E+00
  0.00000000E+00  0.00000000E+00  0.00000000E+00
  0.00000000E+00  0.00000000E+00  0.00000000E+00
  0.00000000E+00  0.00000000E+00  0.00000000E+00
  0.00000000E+00  0.00000000E+00  0.00000000E+00
  0.00000000E+00  0.00000000E+00  0.00000000E+00
  0.00000000E+00  0.00000000E+00  0.00000000E+00
  0.00000000E+00  0.00000000E+00  0.00000000E+00
  0.00000000E+00  0.00000000E+00  0.00000000E+00
  0.00000000E+00  0.00000000E+00  0.00000000E+00
  0.00000000E+00  0.00000000E+00  0.00000000E+00
  0.00000000E+00  0.00000000E+00  0.00000000E+00
  0.00000000E+00  0.00000000E+00  0.00000000E+00
  0.00000000E+00  0.00000000E+00  0.00000000E+00
  0.00000000E+00  0.00000000E+00  0.00000000E+00
  0.00000000E+00  0.00000000E+00  0.00000000E+00
  0.00000000E+00  0.00000000E+00  0.00000000E+00
  0.00000000E+00  0.00000000E+00  0.00000000E+00
  0.00000000E+00  0.00000000E+00  0.00000000E+00
  0.00000000E+00  0.00000000E+00  0.00000000E+00
  0.00000000E+00  0.00000000E+00  0.00000000E+00
  0.00000000E+00  0.00000000E+00  0.00000000E+00
