Ag-Ta-OOH                               
   1.00000000000000     
     8.7913665770999998    0.0000000000000000    0.0000000000000000
     4.3956832885999999    7.6135467898000000    0.0000000000000000
     0.0000000000000000    0.0000000000000000   25.9078406019906637
   Ag   Ta   O    H 
    35     1     2     1
Selective dynamics
Direct
  0.0000000000000000  0.0000000000000000  0.2038837671931404   F   F   F
  0.3333333129999971  0.0000000000000000  0.2038837671931404   F   F   F
  0.6666666269999979  0.0000000000000000  0.2038837671931404   F   F   F
  0.0000000000000000  0.3333333429999996  0.2038837671931404   F   F   F
  0.3333333129999971  0.3333333429999996  0.2038837671931404   F   F   F
  0.6666666870000029  0.3333333429999996  0.2038837671931404   F   F   F
  0.0000000000000000  0.6666666870000029  0.2038837671931404   F   F   F
  0.3333333129999971  0.6666666870000029  0.2038837671931404   F   F   F
  0.6666666269999979  0.6666666870000029  0.2038837671931404   F   F   F
  0.1111111040000026  0.1111111120000032  0.2962383266144002   F   F   F
  0.4444444479999987  0.1111111120000032  0.2962383266144002   F   F   F
  0.7777777909999983  0.1111111120000032  0.2962383266144002   F   F   F
  0.1111110969999984  0.4444444479999987  0.2962383266144002   F   F   F
  0.4444444180000033  0.4444444479999987  0.2962383266144002   F   F   F
  0.7777777909999983  0.4444444479999987  0.2962383266144002   F   F   F
  0.1111111040000026  0.7777777909999983  0.2962383266144002   F   F   F
  0.4444444479999987  0.7777777909999983  0.2962383266144002   F   F   F
  0.7777777909999983  0.7777777909999983  0.2962383266144002   F   F   F
  0.8887012747242977  0.2225974665513988  0.3886619289139404   F   F   F
  0.2215522205225398  0.2215522355225374  0.3869049888223230   F   F   F
  0.5568954989549226  0.2215522355225374  0.3869049888223230   F   F   F
  0.8883014322922733  0.5558493138538623  0.3886450534702206   F   F   F
  0.2215522355225374  0.5568955589549205  0.3869049888223230   F   F   F
  0.5558493138538623  0.5558493138538623  0.3886450534702206   F   F   F
  0.8887012747242977  0.8887012747242977  0.3886619289139404   F   F   F
  0.2225974365514034  0.8887012747242977  0.3886619289139404   F   F   F
  0.5558492538538573  0.8883014322922733  0.3886450534702206   F   F   F
  0.0000000000000000  0.0000000000000000  0.4808518160231330   F   F   F
  0.3335074893021215  0.0057435738034570  0.4824646413845670   F   F   F
  0.6607488768944094  0.0057435738034570  0.4824646413845670   F   F   F
  0.0057435738034570  0.3335075193021169  0.4824646413845670   F   F   F
  0.6607489368944073  0.3335075193021169  0.4824646413845670   F   F   F
  0.0057435738034570  0.6607489368944073  0.4824646413845670   F   F   F
  0.3335074893021215  0.6607489368944073  0.4824646413845670   F   F   F
  0.6666666269999979  0.6666666870000029  0.4813621470942522   F   F   F
  0.3333333129999971  0.3333333429999996  0.4719158223321713   F   F   F
  0.4110168851367600  0.4110328196314163  0.5263910980222151   T   T   T
  0.2491976322289848  0.2494975269763234  0.5349304344615211   T   T   T
  0.2825433758025361  0.2845030390650337  0.5668923607999512   T   T   T
 
  0.00000000E+00  0.00000000E+00  0.00000000E+00
  0.00000000E+00  0.00000000E+00  0.00000000E+00
  0.00000000E+00  0.00000000E+00  0.00000000E+00
  0.00000000E+00  0.00000000E+00  0.00000000E+00
  0.00000000E+00  0.00000000E+00  0.00000000E+00
  0.00000000E+00  0.00000000E+00  0.00000000E+00
  0.00000000E+00  0.00000000E+00  0.00000000E+00
  0.00000000E+00  0.00000000E+00  0.00000000E+00
  0.00000000E+00  0.00000000E+00  0.00000000E+00
  0.00000000E+00  0.00000000E+00  0.00000000E+00
  0.00000000E+00  0.00000000E+00  0.00000000E+00
  0.00000000E+00  0.00000000E+00  0.00000000E+00
  0.00000000E+00  0.00000000E+00  0.00000000E+00
  0.00000000E+00  0.00000000E+00  0.00000000E+00
  0.00000000E+00  0.00000000E+00  0.00000000E+00
  0.00000000E+00  0.00000000E+00  0.00000000E+00
  0.00000000E+00  0.00000000E+00  0.00000000E+00
  0.00000000E+00  0.00000000E+00  0.00000000E+00
  0.00000000E+00  0.00000000E+00  0.00000000E+00
  0.00000000E+00  0.00000000E+00  0.00000000E+00
  0.00000000E+00  0.00000000E+00  0.00000000E+00
  0.00000000E+00  0.00000000E+00  0.00000000E+00
  0.00000000E+00  0.00000000E+00  0.00000000E+00
  0.00000000E+00  0.00000000E+00  0.00000000E+00
  0.00000000E+00  0.00000000E+00  0.00000000E+00
  0.00000000E+00  0.00000000E+00  0.00000000E+00
  0.00000000E+00  0.00000000E+00  0.00000000E+00
  0.00000000E+00  0.00000000E+00  0.00000000E+00
  0.00000000E+00  0.00000000E+00  0.00000000E+00
  0.00000000E+00  0.00000000E+00  0.00000000E+00
  0.00000000E+00  0.00000000E+00  0.00000000E+00
  0.00000000E+00  0.00000000E+00  0.00000000E+00
  0.00000000E+00  0.00000000E+00  0.00000000E+00
  0.00000000E+00  0.00000000E+00  0.00000000E+00
  0.00000000E+00  0.00000000E+00  0.00000000E+00
  0.00000000E+00  0.00000000E+00  0.00000000E+00
  0.00000000E+00  0.00000000E+00  0.00000000E+00
  0.00000000E+00  0.00000000E+00  0.00000000E+00
  0.00000000E+00  0.00000000E+00  0.00000000E+00
