Au-Pt-H2                                
   1.00000000000000     
     8.8135128021000000    0.0000000000000000    0.0000000000000000
     4.4067569092000003    7.6327256898000000    0.0000000000000000
     0.0000000000000000    0.0000000000000000   23.6248947541473271
   Au   Pt   H 
    35     1     2
Selective dynamics
Direct
  0.0000000000000000  0.0000000000000000  0.2235091408430421   F   F   F
  0.3333333429999996  0.0000000000000000  0.2235091408430421   F   F   F
  0.6666666870000029  0.0000000000000000  0.2235091408430421   F   F   F
  0.0000000000000000  0.3333333429999996  0.2235091408430421   F   F   F
  0.3333333129999971  0.3333333429999996  0.2235091408430421   F   F   F
  0.6666666870000029  0.3333333429999996  0.2235091408430421   F   F   F
  0.0000000000000000  0.6666666870000029  0.2235091408430421   F   F   F
  0.3333333429999996  0.6666666870000029  0.2235091408430421   F   F   F
  0.6666666269999979  0.6666666870000029  0.2235091408430421   F   F   F
  0.1111111190000003  0.1111111120000032  0.3250433123879120   F   F   F
  0.4444444180000033  0.1111111120000032  0.3250433123879120   F   F   F
  0.7777777909999983  0.1111111120000032  0.3250433123879120   F   F   F
  0.1111111270000009  0.4444444479999987  0.3250433123879120   F   F   F
  0.4444444780000012  0.4444444479999987  0.3250433123879120   F   F   F
  0.7777777310000005  0.4444444479999987  0.3250433123879120   F   F   F
  0.1111110900000014  0.7777777909999983  0.3250433123879120   F   F   F
  0.4444444479999987  0.7777777909999983  0.3250433123879120   F   F   F
  0.7777778510000033  0.7777777909999983  0.3250433123879120   F   F   F
  0.8888281781493674  0.2223436597012665  0.4263865199888031   F   F   F
  0.2214459347086972  0.2214459197086995  0.4253242357467997   F   F   F
  0.5571081905826034  0.2214459197086995  0.4253242357467997   F   F   F
  0.8880668269912633  0.5559666165043566  0.4261060646671524   F   F   F
  0.2214458897086971  0.5571081905826034  0.4253242357467997   F   F   F
  0.5559666165043566  0.5559666165043566  0.4261060646671524   F   F   F
  0.8888281781493674  0.8888281781493674  0.4263865199888031   F   F   F
  0.2223436897012689  0.8888281781493674  0.4263865199888031   F   F   F
  0.5559665565043588  0.8880668269912633  0.4261060646671524   F   F   F
  0.0000000000000000  0.0000000000000000  0.5290626826196601   F   F   F
  0.3334567551756891  0.0020607503636896  0.5288138096160822   F   F   F
  0.6644825244606167  0.0020607503636896  0.5288138096160822   F   F   F
  0.0020607503636896  0.3334567551756891  0.5288138096160822   F   F   F
  0.6644825244606167  0.3334567551756891  0.5288138096160822   F   F   F
  0.0020607503636896  0.6644825244606167  0.5288138096160822   F   F   F
  0.3334567551756891  0.6644825244606167  0.5288138096160822   F   F   F
  0.6666666269999979  0.6666666870000029  0.5289589940772998   F   F   F
  0.3333333129999971  0.3333333429999996  0.5205596645076795   F   F   F
  0.2791967769357631  0.3324977213757400  0.5890577165831304   T   T   T
  0.3883054706884838  0.3324977213757400  0.5890577165831304   T   T   T
 
  0.00000000E+00  0.00000000E+00  0.00000000E+00
  0.00000000E+00  0.00000000E+00  0.00000000E+00
  0.00000000E+00  0.00000000E+00  0.00000000E+00
  0.00000000E+00  0.00000000E+00  0.00000000E+00
  0.00000000E+00  0.00000000E+00  0.00000000E+00
  0.00000000E+00  0.00000000E+00  0.00000000E+00
  0.00000000E+00  0.00000000E+00  0.00000000E+00
  0.00000000E+00  0.00000000E+00  0.00000000E+00
  0.00000000E+00  0.00000000E+00  0.00000000E+00
  0.00000000E+00  0.00000000E+00  0.00000000E+00
  0.00000000E+00  0.00000000E+00  0.00000000E+00
  0.00000000E+00  0.00000000E+00  0.00000000E+00
  0.00000000E+00  0.00000000E+00  0.00000000E+00
  0.00000000E+00  0.00000000E+00  0.00000000E+00
  0.00000000E+00  0.00000000E+00  0.00000000E+00
  0.00000000E+00  0.00000000E+00  0.00000000E+00
  0.00000000E+00  0.00000000E+00  0.00000000E+00
  0.00000000E+00  0.00000000E+00  0.00000000E+00
  0.00000000E+00  0.00000000E+00  0.00000000E+00
  0.00000000E+00  0.00000000E+00  0.00000000E+00
  0.00000000E+00  0.00000000E+00  0.00000000E+00
  0.00000000E+00  0.00000000E+00  0.00000000E+00
  0.00000000E+00  0.00000000E+00  0.00000000E+00
  0.00000000E+00  0.00000000E+00  0.00000000E+00
  0.00000000E+00  0.00000000E+00  0.00000000E+00
  0.00000000E+00  0.00000000E+00  0.00000000E+00
  0.00000000E+00  0.00000000E+00  0.00000000E+00
  0.00000000E+00  0.00000000E+00  0.00000000E+00
  0.00000000E+00  0.00000000E+00  0.00000000E+00
  0.00000000E+00  0.00000000E+00  0.00000000E+00
  0.00000000E+00  0.00000000E+00  0.00000000E+00
  0.00000000E+00  0.00000000E+00  0.00000000E+00
  0.00000000E+00  0.00000000E+00  0.00000000E+00
  0.00000000E+00  0.00000000E+00  0.00000000E+00
  0.00000000E+00  0.00000000E+00  0.00000000E+00
  0.00000000E+00  0.00000000E+00  0.00000000E+00
  0.00000000E+00  0.00000000E+00  0.00000000E+00
  0.00000000E+00  0.00000000E+00  0.00000000E+00
