Au-Hf-COH                               
   1.00000000000000     
     8.8135128021000000    0.0000000000000000    0.0000000000000000
     4.4067569092000003    7.6327256898000000    0.0000000000000000
     0.0000000000000000    0.0000000000000000   26.7549911976187857
   Au   Hf   C    O    H 
    35     1     1     1     1
Selective dynamics
Direct
  0.0000000000000000  0.0000000000000000  0.1973605556437903   F   F   F
  0.3333333429999996  0.0000000000000000  0.1973605556437903   F   F   F
  0.6666666870000029  0.0000000000000000  0.1973605556437903   F   F   F
  0.0000000000000000  0.3333333429999996  0.1973605556437903   F   F   F
  0.3333333129999971  0.3333333429999996  0.1973605556437903   F   F   F
  0.6666666870000029  0.3333333429999996  0.1973605556437903   F   F   F
  0.0000000000000000  0.6666666870000029  0.1973605556437903   F   F   F
  0.3333333429999996  0.6666666870000029  0.1973605556437903   F   F   F
  0.6666666269999979  0.6666666870000029  0.1973605556437903   F   F   F
  0.1111111190000003  0.1111111120000032  0.2870161305224883   F   F   F
  0.4444444180000033  0.1111111120000032  0.2870161305224883   F   F   F
  0.7777777909999983  0.1111111120000032  0.2870161305224883   F   F   F
  0.1111111270000009  0.4444444479999987  0.2870161305224883   F   F   F
  0.4444444780000012  0.4444444479999987  0.2870161305224883   F   F   F
  0.7777777310000005  0.4444444479999987  0.2870161305224883   F   F   F
  0.1111110900000014  0.7777777909999983  0.2870161305224883   F   F   F
  0.4444444479999987  0.7777777909999983  0.2870161305224883   F   F   F
  0.7777778510000033  0.7777777909999983  0.2870161305224883   F   F   F
  0.8888755800425869  0.2222488559148204  0.3765535317242907   F   F   F
  0.2226414042061009  0.2226413892061032  0.3760521643414805   F   F   F
  0.5547172515877890  0.2226413892061032  0.3760521643414805   F   F   F
  0.8873408608288571  0.5563295995855668  0.3763735754180786   F   F   F
  0.2226413592061007  0.5547172515877890  0.3760521643414805   F   F   F
  0.5563295995855668  0.5563295995855668  0.3763735754180786   F   F   F
  0.8888755800425869  0.8888755800425869  0.3765535317242907   F   F   F
  0.2222488859148228  0.8888755800425869  0.3765535317242907   F   F   F
  0.5563295395855690  0.8873408608288571  0.3763735754180786   F   F   F
  0.0000000000000000  0.0000000000000000  0.4670799565187522   F   F   F
  0.3338754718482377  0.0078634981941406  0.4694019380328314   F   F   F
  0.6582610599576313  0.0078634981941406  0.4694019380328314   F   F   F
  0.0078634981941406  0.3338754718482377  0.4694019380328314   F   F   F
  0.6582610599576313  0.3338754718482377  0.4694019380328314   F   F   F
  0.0078634981941406  0.6582610599576313  0.4694019380328314   F   F   F
  0.3338754718482377  0.6582610599576313  0.4694019380328314   F   F   F
  0.6666666269999979  0.6666666870000029  0.4674982480217125   F   F   F
  0.3333333129999971  0.3333333429999996  0.4601589233313774   F   F   F
  0.3333333129999971  0.3333333429999996  0.5379540861414420   T   T   T
  0.3333333129999971  0.3333333429999996  0.5848099237842029   T   T   T
  0.3333333129999971  0.3333333429999996  0.6206272673287864   T   T   T
 
  0.00000000E+00  0.00000000E+00  0.00000000E+00
  0.00000000E+00  0.00000000E+00  0.00000000E+00
  0.00000000E+00  0.00000000E+00  0.00000000E+00
  0.00000000E+00  0.00000000E+00  0.00000000E+00
  0.00000000E+00  0.00000000E+00  0.00000000E+00
  0.00000000E+00  0.00000000E+00  0.00000000E+00
  0.00000000E+00  0.00000000E+00  0.00000000E+00
  0.00000000E+00  0.00000000E+00  0.00000000E+00
  0.00000000E+00  0.00000000E+00  0.00000000E+00
  0.00000000E+00  0.00000000E+00  0.00000000E+00
  0.00000000E+00  0.00000000E+00  0.00000000E+00
  0.00000000E+00  0.00000000E+00  0.00000000E+00
  0.00000000E+00  0.00000000E+00  0.00000000E+00
  0.00000000E+00  0.00000000E+00  0.00000000E+00
  0.00000000E+00  0.00000000E+00  0.00000000E+00
  0.00000000E+00  0.00000000E+00  0.00000000E+00
  0.00000000E+00  0.00000000E+00  0.00000000E+00
  0.00000000E+00  0.00000000E+00  0.00000000E+00
  0.00000000E+00  0.00000000E+00  0.00000000E+00
  0.00000000E+00  0.00000000E+00  0.00000000E+00
  0.00000000E+00  0.00000000E+00  0.00000000E+00
  0.00000000E+00  0.00000000E+00  0.00000000E+00
  0.00000000E+00  0.00000000E+00  0.00000000E+00
  0.00000000E+00  0.00000000E+00  0.00000000E+00
  0.00000000E+00  0.00000000E+00  0.00000000E+00
  0.00000000E+00  0.00000000E+00  0.00000000E+00
  0.00000000E+00  0.00000000E+00  0.00000000E+00
  0.00000000E+00  0.00000000E+00  0.00000000E+00
  0.00000000E+00  0.00000000E+00  0.00000000E+00
  0.00000000E+00  0.00000000E+00  0.00000000E+00
  0.00000000E+00  0.00000000E+00  0.00000000E+00
  0.00000000E+00  0.00000000E+00  0.00000000E+00
  0.00000000E+00  0.00000000E+00  0.00000000E+00
  0.00000000E+00  0.00000000E+00  0.00000000E+00
  0.00000000E+00  0.00000000E+00  0.00000000E+00
  0.00000000E+00  0.00000000E+00  0.00000000E+00
  0.00000000E+00  0.00000000E+00  0.00000000E+00
  0.00000000E+00  0.00000000E+00  0.00000000E+00
  0.00000000E+00  0.00000000E+00  0.00000000E+00
