Ag-Fe-N2                                
   1.00000000000000     
     8.7913665770999998    0.0000000000000000    0.0000000000000000
     4.3956832885999999    7.6135467898000000    0.0000000000000000
     0.0000000000000000    0.0000000000000000   24.0060125285072843
   Ag   Fe   N 
    35     1     2
Selective dynamics
Direct
  0.0000000000000000  0.0000000000000000  0.2200360486982476   F   F   F
  0.3333333129999971  0.0000000000000000  0.2200360486982476   F   F   F
  0.6666666269999979  0.0000000000000000  0.2200360486982476   F   F   F
  0.0000000000000000  0.3333333429999996  0.2200360486982476   F   F   F
  0.3333333129999971  0.3333333429999996  0.2200360486982476   F   F   F
  0.6666666870000029  0.3333333429999996  0.2200360486982476   F   F   F
  0.0000000000000000  0.6666666870000029  0.2200360486982476   F   F   F
  0.3333333129999971  0.6666666870000029  0.2200360486982476   F   F   F
  0.6666666269999979  0.6666666870000029  0.2200360486982476   F   F   F
  0.1111111040000026  0.1111111120000032  0.3197072123915774   F   F   F
  0.4444444479999987  0.1111111120000032  0.3197072123915774   F   F   F
  0.7777777909999983  0.1111111120000032  0.3197072123915774   F   F   F
  0.1111110969999984  0.4444444479999987  0.3197072123915774   F   F   F
  0.4444444180000033  0.4444444479999987  0.3197072123915774   F   F   F
  0.7777777909999983  0.4444444479999987  0.3197072123915774   F   F   F
  0.1111111040000026  0.7777777909999983  0.3197072123915774   F   F   F
  0.4444444479999987  0.7777777909999983  0.3197072123915774   F   F   F
  0.7777777909999983  0.7777777909999983  0.3197072123915774   F   F   F
  0.8887895449987369  0.2224209260025134  0.4191721593820077   F   F   F
  0.2231699221967887  0.2231699371967935  0.4182134703892970   F   F   F
  0.5536600956064319  0.2231699371967935  0.4182134703892970   F   F   F
  0.8882103500147878  0.5558948549926015  0.4187356425951023   F   F   F
  0.2231699371967935  0.5536601556064298  0.4182134703892970   F   F   F
  0.5558948549926015  0.5558948549926015  0.4187356425951023   F   F   F
  0.8887895449987369  0.8887895449987369  0.4191721593820077   F   F   F
  0.2224208960024967  0.8887895449987369  0.4191721593820077   F   F   F
  0.5558947949925965  0.8882103500147878  0.4187356425951023   F   F   F
  0.0000000000000000  0.0000000000000000  0.5176635355300689   F   F   F
  0.3331703856438608  0.0082735923931025  0.5176942336638319   F   F   F
  0.6585559619630317  0.0082735923931025  0.5176942336638319   F   F   F
  0.0082735923931025  0.3331704156438633  0.5176942336638319   F   F   F
  0.6585560219630366  0.3331704156438633  0.5176942336638319   F   F   F
  0.0082735923931025  0.6585560219630366  0.5176942336638319   F   F   F
  0.3331703856438608  0.6585560219630366  0.5176942336638319   F   F   F
  0.6666666269999979  0.6666666870000029  0.5174803238558923   F   F   F
  0.3333333129999971  0.3333333429999996  0.5061993841016772   F   F   F
  0.2670485383773331  0.3324639722172849  0.5868791296502646   T   T   T
  0.4004874584053831  0.3324639722172849  0.5868791296502646   T   T   T
 
  0.00000000E+00  0.00000000E+00  0.00000000E+00
  0.00000000E+00  0.00000000E+00  0.00000000E+00
  0.00000000E+00  0.00000000E+00  0.00000000E+00
  0.00000000E+00  0.00000000E+00  0.00000000E+00
  0.00000000E+00  0.00000000E+00  0.00000000E+00
  0.00000000E+00  0.00000000E+00  0.00000000E+00
  0.00000000E+00  0.00000000E+00  0.00000000E+00
  0.00000000E+00  0.00000000E+00  0.00000000E+00
  0.00000000E+00  0.00000000E+00  0.00000000E+00
  0.00000000E+00  0.00000000E+00  0.00000000E+00
  0.00000000E+00  0.00000000E+00  0.00000000E+00
  0.00000000E+00  0.00000000E+00  0.00000000E+00
  0.00000000E+00  0.00000000E+00  0.00000000E+00
  0.00000000E+00  0.00000000E+00  0.00000000E+00
  0.00000000E+00  0.00000000E+00  0.00000000E+00
  0.00000000E+00  0.00000000E+00  0.00000000E+00
  0.00000000E+00  0.00000000E+00  0.00000000E+00
  0.00000000E+00  0.00000000E+00  0.00000000E+00
  0.00000000E+00  0.00000000E+00  0.00000000E+00
  0.00000000E+00  0.00000000E+00  0.00000000E+00
  0.00000000E+00  0.00000000E+00  0.00000000E+00
  0.00000000E+00  0.00000000E+00  0.00000000E+00
  0.00000000E+00  0.00000000E+00  0.00000000E+00
  0.00000000E+00  0.00000000E+00  0.00000000E+00
  0.00000000E+00  0.00000000E+00  0.00000000E+00
  0.00000000E+00  0.00000000E+00  0.00000000E+00
  0.00000000E+00  0.00000000E+00  0.00000000E+00
  0.00000000E+00  0.00000000E+00  0.00000000E+00
  0.00000000E+00  0.00000000E+00  0.00000000E+00
  0.00000000E+00  0.00000000E+00  0.00000000E+00
  0.00000000E+00  0.00000000E+00  0.00000000E+00
  0.00000000E+00  0.00000000E+00  0.00000000E+00
  0.00000000E+00  0.00000000E+00  0.00000000E+00
  0.00000000E+00  0.00000000E+00  0.00000000E+00
  0.00000000E+00  0.00000000E+00  0.00000000E+00
  0.00000000E+00  0.00000000E+00  0.00000000E+00
  0.00000000E+00  0.00000000E+00  0.00000000E+00
  0.00000000E+00  0.00000000E+00  0.00000000E+00
