Au-Co-CO2                               
   1.00000000000000     
     8.8135128021000000    0.0000000000000000    0.0000000000000000
     4.4067569092000003    7.6327256898000000    0.0000000000000000
     0.0000000000000000    0.0000000000000000   25.8471963236167319
   Au   Co   C    O 
    35     1     1     2
Selective dynamics
Direct
  0.0000000000000000  0.0000000000000000  0.2042921740096801   F   F   F
  0.3333333429999996  0.0000000000000000  0.2042921740096801   F   F   F
  0.6666666870000029  0.0000000000000000  0.2042921740096801   F   F   F
  0.0000000000000000  0.3333333429999996  0.2042921740096801   F   F   F
  0.3333333129999971  0.3333333429999996  0.2042921740096801   F   F   F
  0.6666666870000029  0.3333333429999996  0.2042921740096801   F   F   F
  0.0000000000000000  0.6666666870000029  0.2042921740096801   F   F   F
  0.3333333429999996  0.6666666870000029  0.2042921740096801   F   F   F
  0.6666666269999979  0.6666666870000029  0.2042921740096801   F   F   F
  0.1111111190000003  0.1111111120000032  0.2970965960701619   F   F   F
  0.4444444180000033  0.1111111120000032  0.2970965960701619   F   F   F
  0.7777777909999983  0.1111111120000032  0.2970965960701619   F   F   F
  0.1111111270000009  0.4444444479999987  0.2970965960701619   F   F   F
  0.4444444780000012  0.4444444479999987  0.2970965960701619   F   F   F
  0.7777777310000005  0.4444444479999987  0.2970965960701619   F   F   F
  0.1111110900000014  0.7777777909999983  0.2970965960701619   F   F   F
  0.4444444479999987  0.7777777909999983  0.2970965960701619   F   F   F
  0.7777778510000033  0.7777777909999983  0.2970965960701619   F   F   F
  0.8889492676611113  0.2221014806777717  0.3896641738832116   F   F   F
  0.2232171359122432  0.2232171209122527  0.3888527304541398   F   F   F
  0.5535657881754972  0.2232171209122527  0.3888527304541398   F   F   F
  0.8869729083961175  0.5565135758019366  0.3890844540159435   F   F   F
  0.2232170909122431  0.5535657881754972  0.3888527304541398   F   F   F
  0.5565135758019366  0.5565135758019366  0.3890844540159435   F   F   F
  0.8889492676611113  0.8889492676611113  0.3896641738832116   F   F   F
  0.2221015106777671  0.8889492676611113  0.3896641738832116   F   F   F
  0.5565135158019388  0.8869729083961175  0.3890844540159435   F   F   F
  0.0000000000000000  0.0000000000000000  0.4827079113877701   F   F   F
  0.3335061335002223  0.0084163631675267  0.4819008692543889   F   F   F
  0.6580775333322535  0.0084163631675267  0.4819008692543889   F   F   F
  0.0084163631675267  0.3335061335002223  0.4819008692543889   F   F   F
  0.6580775333322535  0.3335061335002223  0.4819008692543889   F   F   F
  0.0084163631675267  0.6580775333322535  0.4819008692543889   F   F   F
  0.3335061335002223  0.6580775333322535  0.4819008692543889   F   F   F
  0.6666666269999979  0.6666666870000029  0.4832548881678917   F   F   F
  0.3333333129999971  0.3333333429999996  0.4701062883529517   F   F   F
  0.3416168635455691  0.3333577181060499  0.6218959383230677   T   T   T
  0.2083111914718936  0.3333514902392101  0.6191535792417223   T   T   T
  0.4749062898538611  0.3334192996882220  0.6245882744678831   T   T   T
 
  0.00000000E+00  0.00000000E+00  0.00000000E+00
  0.00000000E+00  0.00000000E+00  0.00000000E+00
  0.00000000E+00  0.00000000E+00  0.00000000E+00
  0.00000000E+00  0.00000000E+00  0.00000000E+00
  0.00000000E+00  0.00000000E+00  0.00000000E+00
  0.00000000E+00  0.00000000E+00  0.00000000E+00
  0.00000000E+00  0.00000000E+00  0.00000000E+00
  0.00000000E+00  0.00000000E+00  0.00000000E+00
  0.00000000E+00  0.00000000E+00  0.00000000E+00
  0.00000000E+00  0.00000000E+00  0.00000000E+00
  0.00000000E+00  0.00000000E+00  0.00000000E+00
  0.00000000E+00  0.00000000E+00  0.00000000E+00
  0.00000000E+00  0.00000000E+00  0.00000000E+00
  0.00000000E+00  0.00000000E+00  0.00000000E+00
  0.00000000E+00  0.00000000E+00  0.00000000E+00
  0.00000000E+00  0.00000000E+00  0.00000000E+00
  0.00000000E+00  0.00000000E+00  0.00000000E+00
  0.00000000E+00  0.00000000E+00  0.00000000E+00
  0.00000000E+00  0.00000000E+00  0.00000000E+00
  0.00000000E+00  0.00000000E+00  0.00000000E+00
  0.00000000E+00  0.00000000E+00  0.00000000E+00
  0.00000000E+00  0.00000000E+00  0.00000000E+00
  0.00000000E+00  0.00000000E+00  0.00000000E+00
  0.00000000E+00  0.00000000E+00  0.00000000E+00
  0.00000000E+00  0.00000000E+00  0.00000000E+00
  0.00000000E+00  0.00000000E+00  0.00000000E+00
  0.00000000E+00  0.00000000E+00  0.00000000E+00
  0.00000000E+00  0.00000000E+00  0.00000000E+00
  0.00000000E+00  0.00000000E+00  0.00000000E+00
  0.00000000E+00  0.00000000E+00  0.00000000E+00
  0.00000000E+00  0.00000000E+00  0.00000000E+00
  0.00000000E+00  0.00000000E+00  0.00000000E+00
  0.00000000E+00  0.00000000E+00  0.00000000E+00
  0.00000000E+00  0.00000000E+00  0.00000000E+00
  0.00000000E+00  0.00000000E+00  0.00000000E+00
  0.00000000E+00  0.00000000E+00  0.00000000E+00
  0.00000000E+00  0.00000000E+00  0.00000000E+00
  0.00000000E+00  0.00000000E+00  0.00000000E+00
  0.00000000E+00  0.00000000E+00  0.00000000E+00
