Cu-Os-H2O                               
   1.00000000000000     
     7.6967864037000000    0.0000000000000000    0.0000000000000000
     3.8483927580000001    6.6656128092999998    0.0000000000000000
     0.0000000000000000    0.0000000000000000   24.2721068936942466
   Cu   Os   H    O 
    35     1     2     1
Selective dynamics
Direct
  0.0000000000000000  0.0000000000000000  0.2213058662052134   F   F   F
  0.3333333429999996  0.0000000000000000  0.2213058662052134   F   F   F
  0.6666666870000029  0.0000000000000000  0.2213058662052134   F   F   F
  0.0000000000000000  0.3333333429999996  0.2213058662052134   F   F   F
  0.3333333129999971  0.3333333429999996  0.2213058662052134   F   F   F
  0.6666666870000029  0.3333333429999996  0.2213058662052134   F   F   F
  0.0000000000000000  0.6666666870000029  0.2213058662052134   F   F   F
  0.3333333730000021  0.6666666870000029  0.2213058662052134   F   F   F
  0.6666666269999979  0.6666666870000029  0.2213058662052134   F   F   F
  0.1111111190000003  0.1111111120000032  0.3076107049898482   F   F   F
  0.4444444180000033  0.1111111120000032  0.3076107049898482   F   F   F
  0.7777777909999983  0.1111111120000032  0.3076107049898482   F   F   F
  0.1111111190000003  0.4444444479999987  0.3076107049898482   F   F   F
  0.4444444780000012  0.4444444479999987  0.3076107049898482   F   F   F
  0.7777777310000005  0.4444444479999987  0.3076107049898482   F   F   F
  0.1111111120000032  0.7777777310000005  0.3076107049898482   F   F   F
  0.4444444780000012  0.7777777310000005  0.3076107049898482   F   F   F
  0.7777778510000033  0.7777777310000005  0.3076107049898482   F   F   F
  0.8884896078157212  0.2230208003685590  0.3940323948720774   F   F   F
  0.2212247527015379  0.2212247377015402  0.3926274458828871   F   F   F
  0.5575505545969222  0.2212247377015402  0.3926274458828871   F   F   F
  0.8878356294135230  0.5560821552932396  0.3940844355972501   F   F   F
  0.2212247227015425  0.5575504945969172  0.3926274458828871   F   F   F
  0.5560822152932374  0.5560821552932396  0.3940844355972501   F   F   F
  0.8884896078157212  0.8884896078157212  0.3940323948720774   F   F   F
  0.2230208153685567  0.8884896078157212  0.3940323948720774   F   F   F
  0.5560821552932396  0.8878356294135230  0.3940844355972501   F   F   F
  0.0000000000000000  0.0000000000000000  0.4796384562746567   F   F   F
  0.3326620008895986  0.0003628447085475  0.4809035865867628   F   F   F
  0.6669751844018634  0.0003628447085475  0.4809035865867628   F   F   F
  0.0003628447085475  0.3326620008895986  0.4809035865867628   F   F   F
  0.6669751844018634  0.3326620008895986  0.4809035865867628   F   F   F
  0.0003628447085475  0.6669751844018634  0.4809035865867628   F   F   F
  0.3326620308896011  0.6669751844018634  0.4809035865867628   F   F   F
  0.6666666269999979  0.6666666870000029  0.4795772305876866   F   F   F
  0.3333333129999971  0.3333333429999996  0.4769175075025487   F   F   F
  0.2760752881227739  0.2447365825650972  0.5805750549803992   T   T   T
  0.4777590174558070  0.2459260836651470  0.5807131645124398   T   T   T
  0.3336134041826819  0.3312700630522848  0.5743517767123114   T   T   T
 
  0.00000000E+00  0.00000000E+00  0.00000000E+00
  0.00000000E+00  0.00000000E+00  0.00000000E+00
  0.00000000E+00  0.00000000E+00  0.00000000E+00
  0.00000000E+00  0.00000000E+00  0.00000000E+00
  0.00000000E+00  0.00000000E+00  0.00000000E+00
  0.00000000E+00  0.00000000E+00  0.00000000E+00
  0.00000000E+00  0.00000000E+00  0.00000000E+00
  0.00000000E+00  0.00000000E+00  0.00000000E+00
  0.00000000E+00  0.00000000E+00  0.00000000E+00
  0.00000000E+00  0.00000000E+00  0.00000000E+00
  0.00000000E+00  0.00000000E+00  0.00000000E+00
  0.00000000E+00  0.00000000E+00  0.00000000E+00
  0.00000000E+00  0.00000000E+00  0.00000000E+00
  0.00000000E+00  0.00000000E+00  0.00000000E+00
  0.00000000E+00  0.00000000E+00  0.00000000E+00
  0.00000000E+00  0.00000000E+00  0.00000000E+00
  0.00000000E+00  0.00000000E+00  0.00000000E+00
  0.00000000E+00  0.00000000E+00  0.00000000E+00
  0.00000000E+00  0.00000000E+00  0.00000000E+00
  0.00000000E+00  0.00000000E+00  0.00000000E+00
  0.00000000E+00  0.00000000E+00  0.00000000E+00
  0.00000000E+00  0.00000000E+00  0.00000000E+00
  0.00000000E+00  0.00000000E+00  0.00000000E+00
  0.00000000E+00  0.00000000E+00  0.00000000E+00
  0.00000000E+00  0.00000000E+00  0.00000000E+00
  0.00000000E+00  0.00000000E+00  0.00000000E+00
  0.00000000E+00  0.00000000E+00  0.00000000E+00
  0.00000000E+00  0.00000000E+00  0.00000000E+00
  0.00000000E+00  0.00000000E+00  0.00000000E+00
  0.00000000E+00  0.00000000E+00  0.00000000E+00
  0.00000000E+00  0.00000000E+00  0.00000000E+00
  0.00000000E+00  0.00000000E+00  0.00000000E+00
  0.00000000E+00  0.00000000E+00  0.00000000E+00
  0.00000000E+00  0.00000000E+00  0.00000000E+00
  0.00000000E+00  0.00000000E+00  0.00000000E+00
  0.00000000E+00  0.00000000E+00  0.00000000E+00
  0.00000000E+00  0.00000000E+00  0.00000000E+00
  0.00000000E+00  0.00000000E+00  0.00000000E+00
  0.00000000E+00  0.00000000E+00  0.00000000E+00
