Au-Mo-H2O                               
   1.00000000000000     
     8.8135128021000000    0.0000000000000000    0.0000000000000000
     4.4067569092000003    7.6327256898000000    0.0000000000000000
     0.0000000000000000    0.0000000000000000   24.7442300385987473
   Au   Mo   H    O 
    35     1     2     1
Selective dynamics
Direct
  0.0000000000000000  0.0000000000000000  0.2133984335244890   F   F   F
  0.3333333429999996  0.0000000000000000  0.2133984335244890   F   F   F
  0.6666666870000029  0.0000000000000000  0.2133984335244890   F   F   F
  0.0000000000000000  0.3333333429999996  0.2133984335244890   F   F   F
  0.3333333129999971  0.3333333429999996  0.2133984335244890   F   F   F
  0.6666666870000029  0.3333333429999996  0.2133984335244890   F   F   F
  0.0000000000000000  0.6666666870000029  0.2133984335244890   F   F   F
  0.3333333429999996  0.6666666870000029  0.2133984335244890   F   F   F
  0.6666666269999979  0.6666666870000029  0.2133984335244890   F   F   F
  0.1111111190000003  0.1111111120000032  0.3103395835604914   F   F   F
  0.4444444180000033  0.1111111120000032  0.3103395835604914   F   F   F
  0.7777777909999983  0.1111111120000032  0.3103395835604914   F   F   F
  0.1111111270000009  0.4444444479999987  0.3103395835604914   F   F   F
  0.4444444780000012  0.4444444479999987  0.3103395835604914   F   F   F
  0.7777777310000005  0.4444444479999987  0.3103395835604914   F   F   F
  0.1111110900000014  0.7777777909999983  0.3103395835604914   F   F   F
  0.4444444479999987  0.7777777909999983  0.3103395835604914   F   F   F
  0.7777778510000033  0.7777777909999983  0.3103395835604914   F   F   F
  0.8885187391105802  0.2229625377788267  0.4079294701350378   F   F   F
  0.2223143366422278  0.2223143216422301  0.4059446486157512   F   F   F
  0.5553713867155423  0.2223143216422301  0.4059446486157512   F   F   F
  0.8865446325489899  0.5567277137255005  0.4069025225941800   F   F   F
  0.2223142916422276  0.5553713867155423  0.4059446486157512   F   F   F
  0.5567277137255005  0.5567277137255005  0.4069025225941800   F   F   F
  0.8885187391105802  0.8885187391105802  0.4079294701350378   F   F   F
  0.2229625677788434  0.8885187391105802  0.4079294701350378   F   F   F
  0.5567276537255026  0.8865446325489899  0.4069025225941800   F   F   F
  0.0000000000000000  0.0000000000000000  0.5051415755767792   F   F   F
  0.3334564073824424  0.0099117229930670  0.5067717725397003   F   F   F
  0.6566318996244931  0.0099117229930670  0.5067717725397003   F   F   F
  0.0099117229930670  0.3334564073824424  0.5067717725397003   F   F   F
  0.6566318996244931  0.3334564073824424  0.5067717725397003   F   F   F
  0.0099117229930670  0.6566318996244931  0.5067717725397003   F   F   F
  0.3334564073824424  0.6566318996244931  0.5067717725397003   F   F   F
  0.6666666269999979  0.6666666870000029  0.5051090027578482   F   F   F
  0.3333333129999971  0.3333333429999996  0.4944387749817380   F   F   F
  0.2795643371199574  0.2620958479511089  0.5955046189357560   T   T   T
  0.4578857745097480  0.2615481571644338  0.5953186505775463   T   T   T
  0.3332248855753832  0.3329866448666010  0.5864225408978712   T   T   T
 
  0.00000000E+00  0.00000000E+00  0.00000000E+00
  0.00000000E+00  0.00000000E+00  0.00000000E+00
  0.00000000E+00  0.00000000E+00  0.00000000E+00
  0.00000000E+00  0.00000000E+00  0.00000000E+00
  0.00000000E+00  0.00000000E+00  0.00000000E+00
  0.00000000E+00  0.00000000E+00  0.00000000E+00
  0.00000000E+00  0.00000000E+00  0.00000000E+00
  0.00000000E+00  0.00000000E+00  0.00000000E+00
  0.00000000E+00  0.00000000E+00  0.00000000E+00
  0.00000000E+00  0.00000000E+00  0.00000000E+00
  0.00000000E+00  0.00000000E+00  0.00000000E+00
  0.00000000E+00  0.00000000E+00  0.00000000E+00
  0.00000000E+00  0.00000000E+00  0.00000000E+00
  0.00000000E+00  0.00000000E+00  0.00000000E+00
  0.00000000E+00  0.00000000E+00  0.00000000E+00
  0.00000000E+00  0.00000000E+00  0.00000000E+00
  0.00000000E+00  0.00000000E+00  0.00000000E+00
  0.00000000E+00  0.00000000E+00  0.00000000E+00
  0.00000000E+00  0.00000000E+00  0.00000000E+00
  0.00000000E+00  0.00000000E+00  0.00000000E+00
  0.00000000E+00  0.00000000E+00  0.00000000E+00
  0.00000000E+00  0.00000000E+00  0.00000000E+00
  0.00000000E+00  0.00000000E+00  0.00000000E+00
  0.00000000E+00  0.00000000E+00  0.00000000E+00
  0.00000000E+00  0.00000000E+00  0.00000000E+00
  0.00000000E+00  0.00000000E+00  0.00000000E+00
  0.00000000E+00  0.00000000E+00  0.00000000E+00
  0.00000000E+00  0.00000000E+00  0.00000000E+00
  0.00000000E+00  0.00000000E+00  0.00000000E+00
  0.00000000E+00  0.00000000E+00  0.00000000E+00
  0.00000000E+00  0.00000000E+00  0.00000000E+00
  0.00000000E+00  0.00000000E+00  0.00000000E+00
  0.00000000E+00  0.00000000E+00  0.00000000E+00
  0.00000000E+00  0.00000000E+00  0.00000000E+00
  0.00000000E+00  0.00000000E+00  0.00000000E+00
  0.00000000E+00  0.00000000E+00  0.00000000E+00
  0.00000000E+00  0.00000000E+00  0.00000000E+00
  0.00000000E+00  0.00000000E+00  0.00000000E+00
  0.00000000E+00  0.00000000E+00  0.00000000E+00
