Cu-Ir-H2                                
   1.00000000000000     
     7.6967864037000000    0.0000000000000000    0.0000000000000000
     3.8483927580000001    6.6656128092999998    0.0000000000000000
     0.0000000000000000    0.0000000000000000   21.2843990325999997
   Cu   Ir   H 
    35     1     2
Selective dynamics
Direct
  0.0000000000000000  0.0000000000000000  0.2523707450000003   F   F   F
  0.3333333429999996  0.0000000000000000  0.2523707450000003   F   F   F
  0.6666666870000029  0.0000000000000000  0.2523707450000003   F   F   F
  0.0000000000000000  0.3333333429999996  0.2523707450000003   F   F   F
  0.3333333129999971  0.3333333429999996  0.2523707450000003   F   F   F
  0.6666666870000029  0.3333333429999996  0.2523707450000003   F   F   F
  0.0000000000000000  0.6666666870000029  0.2523707450000003   F   F   F
  0.3333333730000021  0.6666666870000029  0.2523707450000003   F   F   F
  0.6666666269999979  0.6666666870000029  0.2523707450000003   F   F   F
  0.1111111190000003  0.1111111120000032  0.3507902619999967   F   F   F
  0.4444444180000033  0.1111111120000032  0.3507902619999967   F   F   F
  0.7777777909999983  0.1111111120000032  0.3507902619999967   F   F   F
  0.1111111190000003  0.4444444479999987  0.3507902619999967   F   F   F
  0.4444444780000012  0.4444444479999987  0.3507902619999967   F   F   F
  0.7777777310000005  0.4444444479999987  0.3507902619999967   F   F   F
  0.1111111120000032  0.7777777310000005  0.3507902619999967   F   F   F
  0.4444444780000012  0.7777777310000005  0.3507902619999967   F   F   F
  0.7777778510000033  0.7777777310000005  0.3507902619999967   F   F   F
  0.8884058402158459  0.2231883355683024  0.4492355449040843   F   F   F
  0.2210473199912713  0.2210473049912736  0.4478122173914443   F   F   F
  0.5579054200174483  0.2210473049912736  0.4478122173914443   F   F   F
  0.8880761924417300  0.5559618737791325  0.4491673125717028   F   F   F
  0.2210472899912759  0.5579053600174504  0.4478122173914443   F   F   F
  0.5559619337791304  0.5559618737791325  0.4491673125717028   F   F   F
  0.8884058402158459  0.8884058402158459  0.4492355449040843   F   F   F
  0.2231883505683001  0.8884058402158459  0.4492355449040843   F   F   F
  0.5559618737791325  0.8880761924417300  0.4491673125717028   F   F   F
  0.0000000000000000  0.0000000000000000  0.5464103577516752   F   F   F
  0.3327638239359914  0.9992277974318213  0.5478703180910998   F   F   F
  0.6680084086321898  0.9992277974318213  0.5478703180910998   F   F   F
  0.9992277974318213  0.3327638239359914  0.5478703180910998   F   F   F
  0.6680084086321898  0.3327638239359914  0.5478703180910998   F   F   F
  0.9992277974318213  0.6680084086321898  0.5478703180910998   F   F   F
  0.3327638539359938  0.6680084086321898  0.5478703180910998   F   F   F
  0.6666666269999979  0.6666666870000029  0.5463695804065480   F   F   F
  0.3333333129999971  0.3333333429999996  0.5450057756816591   F   F   F
  0.2188998123975097  0.2869919072863425  0.6029667823402534   T   T   T
  0.4941082493161417  0.2869919072863425  0.6029667823402534   T   T   T
 
  0.00000000E+00  0.00000000E+00  0.00000000E+00
  0.00000000E+00  0.00000000E+00  0.00000000E+00
  0.00000000E+00  0.00000000E+00  0.00000000E+00
  0.00000000E+00  0.00000000E+00  0.00000000E+00
  0.00000000E+00  0.00000000E+00  0.00000000E+00
  0.00000000E+00  0.00000000E+00  0.00000000E+00
  0.00000000E+00  0.00000000E+00  0.00000000E+00
  0.00000000E+00  0.00000000E+00  0.00000000E+00
  0.00000000E+00  0.00000000E+00  0.00000000E+00
  0.00000000E+00  0.00000000E+00  0.00000000E+00
  0.00000000E+00  0.00000000E+00  0.00000000E+00
  0.00000000E+00  0.00000000E+00  0.00000000E+00
  0.00000000E+00  0.00000000E+00  0.00000000E+00
  0.00000000E+00  0.00000000E+00  0.00000000E+00
  0.00000000E+00  0.00000000E+00  0.00000000E+00
  0.00000000E+00  0.00000000E+00  0.00000000E+00
  0.00000000E+00  0.00000000E+00  0.00000000E+00
  0.00000000E+00  0.00000000E+00  0.00000000E+00
  0.00000000E+00  0.00000000E+00  0.00000000E+00
  0.00000000E+00  0.00000000E+00  0.00000000E+00
  0.00000000E+00  0.00000000E+00  0.00000000E+00
  0.00000000E+00  0.00000000E+00  0.00000000E+00
  0.00000000E+00  0.00000000E+00  0.00000000E+00
  0.00000000E+00  0.00000000E+00  0.00000000E+00
  0.00000000E+00  0.00000000E+00  0.00000000E+00
  0.00000000E+00  0.00000000E+00  0.00000000E+00
  0.00000000E+00  0.00000000E+00  0.00000000E+00
  0.00000000E+00  0.00000000E+00  0.00000000E+00
  0.00000000E+00  0.00000000E+00  0.00000000E+00
  0.00000000E+00  0.00000000E+00  0.00000000E+00
  0.00000000E+00  0.00000000E+00  0.00000000E+00
  0.00000000E+00  0.00000000E+00  0.00000000E+00
  0.00000000E+00  0.00000000E+00  0.00000000E+00
  0.00000000E+00  0.00000000E+00  0.00000000E+00
  0.00000000E+00  0.00000000E+00  0.00000000E+00
  0.00000000E+00  0.00000000E+00  0.00000000E+00
  0.00000000E+00  0.00000000E+00  0.00000000E+00
  0.00000000E+00  0.00000000E+00  0.00000000E+00
