Cu-Rh-CO2                               
   1.00000000000000     
     7.6967864037000000    0.0000000000000000    0.0000000000000000
     3.8483927580000001    6.6656128092999998    0.0000000000000000
     0.0000000000000000    0.0000000000000000   23.4632997304554536
   Cu   Rh   C    O 
    35     1     1     2
Selective dynamics
Direct
  0.0000000000000000  0.0000000000000000  0.2289345361668111   F   F   F
  0.3333333429999996  0.0000000000000000  0.2289345361668111   F   F   F
  0.6666666870000029  0.0000000000000000  0.2289345361668111   F   F   F
  0.0000000000000000  0.3333333429999996  0.2289345361668111   F   F   F
  0.3333333129999971  0.3333333429999996  0.2289345361668111   F   F   F
  0.6666666870000029  0.3333333429999996  0.2289345361668111   F   F   F
  0.0000000000000000  0.6666666870000029  0.2289345361668111   F   F   F
  0.3333333730000021  0.6666666870000029  0.2289345361668111   F   F   F
  0.6666666269999979  0.6666666870000029  0.2289345361668111   F   F   F
  0.1111111190000003  0.1111111120000032  0.3182144028730534   F   F   F
  0.4444444180000033  0.1111111120000032  0.3182144028730534   F   F   F
  0.7777777909999983  0.1111111120000032  0.3182144028730534   F   F   F
  0.1111111190000003  0.4444444479999987  0.3182144028730534   F   F   F
  0.4444444780000012  0.4444444479999987  0.3182144028730534   F   F   F
  0.7777777310000005  0.4444444479999987  0.3182144028730534   F   F   F
  0.1111111120000032  0.7777777310000005  0.3182144028730534   F   F   F
  0.4444444780000012  0.7777777310000005  0.3182144028730534   F   F   F
  0.7777778510000033  0.7777777310000005  0.3182144028730534   F   F   F
  0.8886285643241081  0.2227428873517923  0.4070756369428992   F   F   F
  0.2217293898872725  0.2217293748872677  0.4066516137549669   F   F   F
  0.5565412802254528  0.2217293748872677  0.4066516137549669   F   F   F
  0.8887037093822130  0.5556481153088910  0.4073420948742168   F   F   F
  0.2217293598872772  0.5565412202254478  0.4066516137549669   F   F   F
  0.5556481753088889  0.5556481153088910  0.4073420948742168   F   F   F
  0.8886285643241081  0.8886285643241081  0.4070756369428992   F   F   F
  0.2227429023517828  0.8886285643241081  0.4070756369428992   F   F   F
  0.5556481153088910  0.8887037093822130  0.4073420948742168   F   F   F
  0.0000000000000000  0.0000000000000000  0.4952194194471886   F   F   F
  0.3328838429068099  0.9982761159208309  0.4962085381492969   F   F   F
  0.6688400711723617  0.9982761159208309  0.4962085381492969   F   F   F
  0.9982761159208309  0.3328838429068099  0.4962085381492969   F   F   F
  0.6688400711723617  0.3328838429068099  0.4962085381492969   F   F   F
  0.9982761159208309  0.6688400711723617  0.4962085381492969   F   F   F
  0.3328838729068124  0.6688400711723617  0.4962085381492969   F   F   F
  0.6666666269999979  0.6666666870000029  0.4953849753797499   F   F   F
  0.3333333129999971  0.3333333429999996  0.4958663395019727   F   F   F
  0.3333406316577410  0.3333187056845119  0.6511844429760956   T   T   T
  0.1804082691469944  0.3333665559944592  0.6514050750840994   T   T   T
  0.4862251438585545  0.3333665559944592  0.6514050750840994   T   T   T
 
  0.00000000E+00  0.00000000E+00  0.00000000E+00
  0.00000000E+00  0.00000000E+00  0.00000000E+00
  0.00000000E+00  0.00000000E+00  0.00000000E+00
  0.00000000E+00  0.00000000E+00  0.00000000E+00
  0.00000000E+00  0.00000000E+00  0.00000000E+00
  0.00000000E+00  0.00000000E+00  0.00000000E+00
  0.00000000E+00  0.00000000E+00  0.00000000E+00
  0.00000000E+00  0.00000000E+00  0.00000000E+00
  0.00000000E+00  0.00000000E+00  0.00000000E+00
  0.00000000E+00  0.00000000E+00  0.00000000E+00
  0.00000000E+00  0.00000000E+00  0.00000000E+00
  0.00000000E+00  0.00000000E+00  0.00000000E+00
  0.00000000E+00  0.00000000E+00  0.00000000E+00
  0.00000000E+00  0.00000000E+00  0.00000000E+00
  0.00000000E+00  0.00000000E+00  0.00000000E+00
  0.00000000E+00  0.00000000E+00  0.00000000E+00
  0.00000000E+00  0.00000000E+00  0.00000000E+00
  0.00000000E+00  0.00000000E+00  0.00000000E+00
  0.00000000E+00  0.00000000E+00  0.00000000E+00
  0.00000000E+00  0.00000000E+00  0.00000000E+00
  0.00000000E+00  0.00000000E+00  0.00000000E+00
  0.00000000E+00  0.00000000E+00  0.00000000E+00
  0.00000000E+00  0.00000000E+00  0.00000000E+00
  0.00000000E+00  0.00000000E+00  0.00000000E+00
  0.00000000E+00  0.00000000E+00  0.00000000E+00
  0.00000000E+00  0.00000000E+00  0.00000000E+00
  0.00000000E+00  0.00000000E+00  0.00000000E+00
  0.00000000E+00  0.00000000E+00  0.00000000E+00
  0.00000000E+00  0.00000000E+00  0.00000000E+00
  0.00000000E+00  0.00000000E+00  0.00000000E+00
  0.00000000E+00  0.00000000E+00  0.00000000E+00
  0.00000000E+00  0.00000000E+00  0.00000000E+00
  0.00000000E+00  0.00000000E+00  0.00000000E+00
  0.00000000E+00  0.00000000E+00  0.00000000E+00
  0.00000000E+00  0.00000000E+00  0.00000000E+00
  0.00000000E+00  0.00000000E+00  0.00000000E+00
  0.00000000E+00  0.00000000E+00  0.00000000E+00
  0.00000000E+00  0.00000000E+00  0.00000000E+00
  0.00000000E+00  0.00000000E+00  0.00000000E+00
