Ag-Re-N2                                
   1.00000000000000     
     8.7913665770999998    0.0000000000000000    0.0000000000000000
     4.3956832885999999    7.6135467898000000    0.0000000000000000
     0.0000000000000000    0.0000000000000000   24.0183410195242644
   Ag   Re   N 
    35     1     2
Selective dynamics
Direct
  0.0000000000000000  0.0000000000000000  0.2199231053252007   F   F   F
  0.3333333129999971  0.0000000000000000  0.2199231053252007   F   F   F
  0.6666666269999979  0.0000000000000000  0.2199231053252007   F   F   F
  0.0000000000000000  0.3333333429999996  0.2199231053252007   F   F   F
  0.3333333129999971  0.3333333429999996  0.2199231053252007   F   F   F
  0.6666666870000029  0.3333333429999996  0.2199231053252007   F   F   F
  0.0000000000000000  0.6666666870000029  0.2199231053252007   F   F   F
  0.3333333129999971  0.6666666870000029  0.2199231053252007   F   F   F
  0.6666666269999979  0.6666666870000029  0.2199231053252007   F   F   F
  0.1111111040000026  0.1111111120000032  0.3195431083224065   F   F   F
  0.4444444479999987  0.1111111120000032  0.3195431083224065   F   F   F
  0.7777777909999983  0.1111111120000032  0.3195431083224065   F   F   F
  0.1111110969999984  0.4444444479999987  0.3195431083224065   F   F   F
  0.4444444180000033  0.4444444479999987  0.3195431083224065   F   F   F
  0.7777777909999983  0.4444444479999987  0.3195431083224065   F   F   F
  0.1111111040000026  0.7777777909999983  0.3195431083224065   F   F   F
  0.4444444479999987  0.7777777909999983  0.3195431083224065   F   F   F
  0.7777777909999983  0.7777777909999983  0.3195431083224065   F   F   F
  0.8885374747334822  0.2229250665330511  0.4191686978592699   F   F   F
  0.2221495139031404  0.2221495289031381  0.4172295219304090   F   F   F
  0.5557009121937071  0.2221495289031381  0.4172295219304090   F   F   F
  0.8879816083280616  0.5560092258359575  0.4187200540868403   F   F   F
  0.2221495289031381  0.5557009721937121  0.4172295219304090   F   F   F
  0.5560092258359575  0.5560092258359575  0.4187200540868403   F   F   F
  0.8885374747334822  0.8885374747334822  0.4191686978592699   F   F   F
  0.2229250365330486  0.8885374747334822  0.4191686978592699   F   F   F
  0.5560091658359667  0.8879816083280616  0.4187200540868403   F   F   F
  0.0000000000000000  0.0000000000000000  0.5175379765334398   F   F   F
  0.3330302481591829  0.0077223461327094  0.5189506350992090   F   F   F
  0.6592473457081169  0.0077223461327094  0.5189506350992090   F   F   F
  0.0077223461327094  0.3330302781591783  0.5189506350992090   F   F   F
  0.6592474057081290  0.3330302781591783  0.5189506350992090   F   F   F
  0.0077223461327094  0.6592474057081290  0.5189506350992090   F   F   F
  0.3330302481591829  0.6592474057081290  0.5189506350992090   F   F   F
  0.6666666269999979  0.6666666870000029  0.5173347900082632   F   F   F
  0.3333333129999971  0.3333333429999996  0.5078945999863294   F   F   F
  0.2666690654754411  0.3325329936045079  0.5961322171107654   T   T   T
  0.4007979099200449  0.3325329936045079  0.5961322171107654   T   T   T
 
  0.00000000E+00  0.00000000E+00  0.00000000E+00
  0.00000000E+00  0.00000000E+00  0.00000000E+00
  0.00000000E+00  0.00000000E+00  0.00000000E+00
  0.00000000E+00  0.00000000E+00  0.00000000E+00
  0.00000000E+00  0.00000000E+00  0.00000000E+00
  0.00000000E+00  0.00000000E+00  0.00000000E+00
  0.00000000E+00  0.00000000E+00  0.00000000E+00
  0.00000000E+00  0.00000000E+00  0.00000000E+00
  0.00000000E+00  0.00000000E+00  0.00000000E+00
  0.00000000E+00  0.00000000E+00  0.00000000E+00
  0.00000000E+00  0.00000000E+00  0.00000000E+00
  0.00000000E+00  0.00000000E+00  0.00000000E+00
  0.00000000E+00  0.00000000E+00  0.00000000E+00
  0.00000000E+00  0.00000000E+00  0.00000000E+00
  0.00000000E+00  0.00000000E+00  0.00000000E+00
  0.00000000E+00  0.00000000E+00  0.00000000E+00
  0.00000000E+00  0.00000000E+00  0.00000000E+00
  0.00000000E+00  0.00000000E+00  0.00000000E+00
  0.00000000E+00  0.00000000E+00  0.00000000E+00
  0.00000000E+00  0.00000000E+00  0.00000000E+00
  0.00000000E+00  0.00000000E+00  0.00000000E+00
  0.00000000E+00  0.00000000E+00  0.00000000E+00
  0.00000000E+00  0.00000000E+00  0.00000000E+00
  0.00000000E+00  0.00000000E+00  0.00000000E+00
  0.00000000E+00  0.00000000E+00  0.00000000E+00
  0.00000000E+00  0.00000000E+00  0.00000000E+00
  0.00000000E+00  0.00000000E+00  0.00000000E+00
  0.00000000E+00  0.00000000E+00  0.00000000E+00
  0.00000000E+00  0.00000000E+00  0.00000000E+00
  0.00000000E+00  0.00000000E+00  0.00000000E+00
  0.00000000E+00  0.00000000E+00  0.00000000E+00
  0.00000000E+00  0.00000000E+00  0.00000000E+00
  0.00000000E+00  0.00000000E+00  0.00000000E+00
  0.00000000E+00  0.00000000E+00  0.00000000E+00
  0.00000000E+00  0.00000000E+00  0.00000000E+00
  0.00000000E+00  0.00000000E+00  0.00000000E+00
  0.00000000E+00  0.00000000E+00  0.00000000E+00
  0.00000000E+00  0.00000000E+00  0.00000000E+00
