Cu-Fe-COH                               
   1.00000000000000     
     7.6967864037000000    0.0000000000000000    0.0000000000000000
     3.8483927580000001    6.6656128092999998    0.0000000000000000
     0.0000000000000000    0.0000000000000000   26.1310625667187750
   Cu   Fe   C    O    H 
    35     1     1     1     1
Selective dynamics
Direct
  0.0000000000000000  0.0000000000000000  0.2055622356350710   F   F   F
  0.3333333429999996  0.0000000000000000  0.2055622356350710   F   F   F
  0.6666666870000029  0.0000000000000000  0.2055622356350710   F   F   F
  0.0000000000000000  0.3333333429999996  0.2055622356350710   F   F   F
  0.3333333129999971  0.3333333429999996  0.2055622356350710   F   F   F
  0.6666666870000029  0.3333333429999996  0.2055622356350710   F   F   F
  0.0000000000000000  0.6666666870000029  0.2055622356350710   F   F   F
  0.3333333730000021  0.6666666870000029  0.2055622356350710   F   F   F
  0.6666666269999979  0.6666666870000029  0.2055622356350710   F   F   F
  0.1111111190000003  0.1111111120000032  0.2857273750003415   F   F   F
  0.4444444180000033  0.1111111120000032  0.2857273750003415   F   F   F
  0.7777777909999983  0.1111111120000032  0.2857273750003415   F   F   F
  0.1111111190000003  0.4444444479999987  0.2857273750003415   F   F   F
  0.4444444780000012  0.4444444479999987  0.2857273750003415   F   F   F
  0.7777777310000005  0.4444444479999987  0.2857273750003415   F   F   F
  0.1111111120000032  0.7777777310000005  0.2857273750003415   F   F   F
  0.4444444780000012  0.7777777310000005  0.2857273750003415   F   F   F
  0.7777778510000033  0.7777777310000005  0.2857273750003415   F   F   F
  0.8886928775953677  0.2226142608092516  0.3656281489076889   F   F   F
  0.2223886165297628  0.2223886015297580  0.3651544435917629   F   F   F
  0.5552228269404580  0.2223886015297580  0.3651544435917629   F   F   F
  0.8883874839824131  0.5558062280087910  0.3656382150373076   F   F   F
  0.2223885865297675  0.5552227669404601  0.3651544435917629   F   F   F
  0.5558062880087888  0.5558062280087910  0.3656382150373076   F   F   F
  0.8886928775953677  0.8886928775953677  0.3656281489076889   F   F   F
  0.2226142758092493  0.8886928775953677  0.3656281489076889   F   F   F
  0.5558062280087910  0.8883874839824131  0.3656382150373076   F   F   F
  0.0000000000000000  0.0000000000000000  0.4448877960795414   F   F   F
  0.3330866475207230  0.0033126154333516  0.4452817233945296   F   F   F
  0.6636007670459279  0.0033126154333516  0.4452817233945296   F   F   F
  0.0033126154333516  0.3330866475207230  0.4452817233945296   F   F   F
  0.6636007670459279  0.3330866475207230  0.4452817233945296   F   F   F
  0.0033126154333516  0.6636007670459279  0.4452817233945296   F   F   F
  0.3330866775207184  0.6636007670459279  0.4452817233945296   F   F   F
  0.6666666269999979  0.6666666870000029  0.4449060342859710   F   F   F
  0.3333333129999971  0.3333333429999996  0.4406723793621268   F   F   F
  0.3333333129999971  0.3333333429999996  0.5037634570315603   T   T   T
  0.3333333129999971  0.3333333429999996  0.5521547950028562   T   T   T
  0.3333333129999971  0.3333333429999996  0.5888656112783792   T   T   T
 
  0.00000000E+00  0.00000000E+00  0.00000000E+00
  0.00000000E+00  0.00000000E+00  0.00000000E+00
  0.00000000E+00  0.00000000E+00  0.00000000E+00
  0.00000000E+00  0.00000000E+00  0.00000000E+00
  0.00000000E+00  0.00000000E+00  0.00000000E+00
  0.00000000E+00  0.00000000E+00  0.00000000E+00
  0.00000000E+00  0.00000000E+00  0.00000000E+00
  0.00000000E+00  0.00000000E+00  0.00000000E+00
  0.00000000E+00  0.00000000E+00  0.00000000E+00
  0.00000000E+00  0.00000000E+00  0.00000000E+00
  0.00000000E+00  0.00000000E+00  0.00000000E+00
  0.00000000E+00  0.00000000E+00  0.00000000E+00
  0.00000000E+00  0.00000000E+00  0.00000000E+00
  0.00000000E+00  0.00000000E+00  0.00000000E+00
  0.00000000E+00  0.00000000E+00  0.00000000E+00
  0.00000000E+00  0.00000000E+00  0.00000000E+00
  0.00000000E+00  0.00000000E+00  0.00000000E+00
  0.00000000E+00  0.00000000E+00  0.00000000E+00
  0.00000000E+00  0.00000000E+00  0.00000000E+00
  0.00000000E+00  0.00000000E+00  0.00000000E+00
  0.00000000E+00  0.00000000E+00  0.00000000E+00
  0.00000000E+00  0.00000000E+00  0.00000000E+00
  0.00000000E+00  0.00000000E+00  0.00000000E+00
  0.00000000E+00  0.00000000E+00  0.00000000E+00
  0.00000000E+00  0.00000000E+00  0.00000000E+00
  0.00000000E+00  0.00000000E+00  0.00000000E+00
  0.00000000E+00  0.00000000E+00  0.00000000E+00
  0.00000000E+00  0.00000000E+00  0.00000000E+00
  0.00000000E+00  0.00000000E+00  0.00000000E+00
  0.00000000E+00  0.00000000E+00  0.00000000E+00
  0.00000000E+00  0.00000000E+00  0.00000000E+00
  0.00000000E+00  0.00000000E+00  0.00000000E+00
  0.00000000E+00  0.00000000E+00  0.00000000E+00
  0.00000000E+00  0.00000000E+00  0.00000000E+00
  0.00000000E+00  0.00000000E+00  0.00000000E+00
  0.00000000E+00  0.00000000E+00  0.00000000E+00
  0.00000000E+00  0.00000000E+00  0.00000000E+00
  0.00000000E+00  0.00000000E+00  0.00000000E+00
  0.00000000E+00  0.00000000E+00  0.00000000E+00
