Ag-W                                    
   1.00000000000000     
     8.7913665770999998    0.0000000000000000    0.0000000000000000
     4.3956832885999999    7.6135467898000000    0.0000000000000000
     0.0000000000000000    0.0000000000000000   22.1781215668000016
   Ag   W 
    35     1
Selective dynamics
Direct
  0.0000000000000000  0.0000000000000000  0.2381711239999973   F   F   F
  0.3333333129999971  0.0000000000000000  0.2381711239999973   F   F   F
  0.6666666269999979  0.0000000000000000  0.2381711239999973   F   F   F
  0.0000000000000000  0.3333333429999996  0.2381711239999973   F   F   F
  0.3333333129999971  0.3333333429999996  0.2381711239999973   F   F   F
  0.6666666870000029  0.3333333429999996  0.2381711239999973   F   F   F
  0.0000000000000000  0.6666666870000029  0.2381711239999973   F   F   F
  0.3333333129999971  0.6666666870000029  0.2381711239999973   F   F   F
  0.6666666269999979  0.6666666870000029  0.2381711239999973   F   F   F
  0.1111111040000026  0.1111111120000032  0.3460570510000025   F   F   F
  0.4444444479999987  0.1111111120000032  0.3460570510000025   F   F   F
  0.7777777909999983  0.1111111120000032  0.3460570510000025   F   F   F
  0.1111110969999984  0.4444444479999987  0.3460570510000025   F   F   F
  0.4444444180000033  0.4444444479999987  0.3460570510000025   F   F   F
  0.7777777909999983  0.4444444479999987  0.3460570510000025   F   F   F
  0.1111111040000026  0.7777777909999983  0.3460570510000025   F   F   F
  0.4444444479999987  0.7777777909999983  0.3460570510000025   F   F   F
  0.7777777909999983  0.7777777909999983  0.3460570510000025   F   F   F
  0.8886825466117677  0.2226349227764658  0.4541432535947087   T   T   T
  0.2218861256664198  0.2218861406664175  0.4520122581897315   T   T   T
  0.5562276886671553  0.2218861406664175  0.4520122581897315   T   T   T
  0.8880293449455638  0.5559853575272099  0.4538176787859452   T   T   T
  0.2218861406664175  0.5562277486671532  0.4520122581897315   T   T   T
  0.5559853575272099  0.5559853575272099  0.4538176787859452   T   T   T
  0.8886825466117677  0.8886825466117677  0.4541432535947087   T   T   T
  0.2226348927764634  0.8886825466117677  0.4541432535947087   T   T   T
  0.5559852975272120  0.8880293449455638  0.4538176787859452   T   T   T
 -0.0000000000000000 -0.0000000000000000  0.5615179146135869   T   T   T
  0.3332125206343750  0.0073839332591104  0.5630502672506253   T   T   T
  0.6594034861065167  0.0073839332591104  0.5630502672506253   T   T   T
  0.0073839332591104  0.3332125506343775  0.5630502672506253   T   T   T
  0.6594035461065216  0.3332125506343775  0.5630502672506253   T   T   T
  0.0073839332591104  0.6594035461065216  0.5630502672506253   T   T   T
  0.3332125206343750  0.6594035461065216  0.5630502672506253   T   T   T
  0.6666666269999979  0.6666666870000029  0.5612727509076585   T   T   T
  0.3333333129999971  0.3333333429999996  0.5502051768821138   T   T   T
 
  0.00000000E+00  0.00000000E+00  0.00000000E+00
  0.00000000E+00  0.00000000E+00  0.00000000E+00
  0.00000000E+00  0.00000000E+00  0.00000000E+00
  0.00000000E+00  0.00000000E+00  0.00000000E+00
  0.00000000E+00  0.00000000E+00  0.00000000E+00
  0.00000000E+00  0.00000000E+00  0.00000000E+00
  0.00000000E+00  0.00000000E+00  0.00000000E+00
  0.00000000E+00  0.00000000E+00  0.00000000E+00
  0.00000000E+00  0.00000000E+00  0.00000000E+00
  0.00000000E+00  0.00000000E+00  0.00000000E+00
  0.00000000E+00  0.00000000E+00  0.00000000E+00
  0.00000000E+00  0.00000000E+00  0.00000000E+00
  0.00000000E+00  0.00000000E+00  0.00000000E+00
  0.00000000E+00  0.00000000E+00  0.00000000E+00
  0.00000000E+00  0.00000000E+00  0.00000000E+00
  0.00000000E+00  0.00000000E+00  0.00000000E+00
  0.00000000E+00  0.00000000E+00  0.00000000E+00
  0.00000000E+00  0.00000000E+00  0.00000000E+00
  0.00000000E+00  0.00000000E+00  0.00000000E+00
  0.00000000E+00  0.00000000E+00  0.00000000E+00
  0.00000000E+00  0.00000000E+00  0.00000000E+00
  0.00000000E+00  0.00000000E+00  0.00000000E+00
  0.00000000E+00  0.00000000E+00  0.00000000E+00
  0.00000000E+00  0.00000000E+00  0.00000000E+00
  0.00000000E+00  0.00000000E+00  0.00000000E+00
  0.00000000E+00  0.00000000E+00  0.00000000E+00
  0.00000000E+00  0.00000000E+00  0.00000000E+00
  0.00000000E+00  0.00000000E+00  0.00000000E+00
  0.00000000E+00  0.00000000E+00  0.00000000E+00
  0.00000000E+00  0.00000000E+00  0.00000000E+00
  0.00000000E+00  0.00000000E+00  0.00000000E+00
  0.00000000E+00  0.00000000E+00  0.00000000E+00
  0.00000000E+00  0.00000000E+00  0.00000000E+00
  0.00000000E+00  0.00000000E+00  0.00000000E+00
  0.00000000E+00  0.00000000E+00  0.00000000E+00
  0.00000000E+00  0.00000000E+00  0.00000000E+00
