Ag-Re-O                                 
   1.00000000000000     
     8.7913665770999998    0.0000000000000000    0.0000000000000000
     4.3956832885999999    7.6135467898000000    0.0000000000000000
     0.0000000000000000    0.0000000000000000   22.1781215668000016
   Ag   Re   O 
    35     1     1
Selective dynamics
Direct
  0.0000000000000000  0.0000000000000000  0.2381711239999973   F   F   F
  0.3333333129999971  0.0000000000000000  0.2381711239999973   F   F   F
  0.6666666269999979  0.0000000000000000  0.2381711239999973   F   F   F
  0.0000000000000000  0.3333333429999996  0.2381711239999973   F   F   F
  0.3333333129999971  0.3333333429999996  0.2381711239999973   F   F   F
  0.6666666870000029  0.3333333429999996  0.2381711239999973   F   F   F
  0.0000000000000000  0.6666666870000029  0.2381711239999973   F   F   F
  0.3333333129999971  0.6666666870000029  0.2381711239999973   F   F   F
  0.6666666269999979  0.6666666870000029  0.2381711239999973   F   F   F
  0.1111111040000026  0.1111111120000032  0.3460570510000025   F   F   F
  0.4444444479999987  0.1111111120000032  0.3460570510000025   F   F   F
  0.7777777909999983  0.1111111120000032  0.3460570510000025   F   F   F
  0.1111110969999984  0.4444444479999987  0.3460570510000025   F   F   F
  0.4444444180000033  0.4444444479999987  0.3460570510000025   F   F   F
  0.7777777909999983  0.4444444479999987  0.3460570510000025   F   F   F
  0.1111111040000026  0.7777777909999983  0.3460570510000025   F   F   F
  0.4444444479999987  0.7777777909999983  0.3460570510000025   F   F   F
  0.7777777909999983  0.7777777909999983  0.3460570510000025   F   F   F
  0.8885374747334751  0.2229250665330511  0.4539490280802241   F   F   F
  0.2221495139031404  0.2221495289031381  0.4518489499191460   F   F   F
  0.5557009121937142  0.2221495289031381  0.4518489499191460   F   F   F
  0.8879816083280616  0.5560092258359646  0.4534631582967990   F   F   F
  0.2221495289031381  0.5557009721937121  0.4518489499191460   F   F   F
  0.5560092258359646  0.5560092258359646  0.4534631582967990   F   F   F
  0.8885374747334751  0.8885374747334751  0.4539490280802241   F   F   F
  0.2229250365330486  0.8885374747334751  0.4539490280802241   F   F   F
  0.5560091658359667  0.8879816083280616  0.4534631582967990   F   F   F
  0.0000000000000000  0.0000000000000000  0.5604804524808173   F   F   F
  0.3330302481591758  0.0077223461327094  0.5620103257423850   F   F   F
  0.6592473457081240  0.0077223461327094  0.5620103257423850   F   F   F
  0.0077223461327094  0.3330302781591783  0.5620103257423850   F   F   F
  0.6592474057081290  0.3330302781591783  0.5620103257423850   F   F   F
  0.0077223461327094  0.6592474057081290  0.5620103257423850   F   F   F
  0.3330302481591758  0.6592474057081290  0.5620103257423850   F   F   F
  0.6666666269999979  0.6666666870000029  0.5602604066470178   F   F   F
  0.3333333129999971  0.3333333429999996  0.5500369211929907   F   F   F
  0.3333333129999971  0.3333333429999996  0.6275422034946337   T   T   T
 
  0.00000000E+00  0.00000000E+00  0.00000000E+00
  0.00000000E+00  0.00000000E+00  0.00000000E+00
  0.00000000E+00  0.00000000E+00  0.00000000E+00
  0.00000000E+00  0.00000000E+00  0.00000000E+00
  0.00000000E+00  0.00000000E+00  0.00000000E+00
  0.00000000E+00  0.00000000E+00  0.00000000E+00
  0.00000000E+00  0.00000000E+00  0.00000000E+00
  0.00000000E+00  0.00000000E+00  0.00000000E+00
  0.00000000E+00  0.00000000E+00  0.00000000E+00
  0.00000000E+00  0.00000000E+00  0.00000000E+00
  0.00000000E+00  0.00000000E+00  0.00000000E+00
  0.00000000E+00  0.00000000E+00  0.00000000E+00
  0.00000000E+00  0.00000000E+00  0.00000000E+00
  0.00000000E+00  0.00000000E+00  0.00000000E+00
  0.00000000E+00  0.00000000E+00  0.00000000E+00
  0.00000000E+00  0.00000000E+00  0.00000000E+00
  0.00000000E+00  0.00000000E+00  0.00000000E+00
  0.00000000E+00  0.00000000E+00  0.00000000E+00
  0.00000000E+00  0.00000000E+00  0.00000000E+00
  0.00000000E+00  0.00000000E+00  0.00000000E+00
  0.00000000E+00  0.00000000E+00  0.00000000E+00
  0.00000000E+00  0.00000000E+00  0.00000000E+00
  0.00000000E+00  0.00000000E+00  0.00000000E+00
  0.00000000E+00  0.00000000E+00  0.00000000E+00
  0.00000000E+00  0.00000000E+00  0.00000000E+00
  0.00000000E+00  0.00000000E+00  0.00000000E+00
  0.00000000E+00  0.00000000E+00  0.00000000E+00
  0.00000000E+00  0.00000000E+00  0.00000000E+00
  0.00000000E+00  0.00000000E+00  0.00000000E+00
  0.00000000E+00  0.00000000E+00  0.00000000E+00
  0.00000000E+00  0.00000000E+00  0.00000000E+00
  0.00000000E+00  0.00000000E+00  0.00000000E+00
  0.00000000E+00  0.00000000E+00  0.00000000E+00
  0.00000000E+00  0.00000000E+00  0.00000000E+00
  0.00000000E+00  0.00000000E+00  0.00000000E+00
  0.00000000E+00  0.00000000E+00  0.00000000E+00
  0.00000000E+00  0.00000000E+00  0.00000000E+00
