Ag-Ta-CO2                               
   1.00000000000000     
     8.7913665770999998    0.0000000000000000    0.0000000000000000
     4.3956832885999999    7.6135467898000000    0.0000000000000000
     0.0000000000000000    0.0000000000000000   24.3553720923146599
   Ag   Ta   C    O 
    35     1     1     2
Selective dynamics
Direct
  0.0000000000000000  0.0000000000000000  0.2168797964470528   F   F   F
  0.3333333129999971  0.0000000000000000  0.2168797964470528   F   F   F
  0.6666666269999979  0.0000000000000000  0.2168797964470528   F   F   F
  0.0000000000000000  0.3333333429999996  0.2168797964470528   F   F   F
  0.3333333129999971  0.3333333429999996  0.2168797964470528   F   F   F
  0.6666666870000029  0.3333333429999996  0.2168797964470528   F   F   F
  0.0000000000000000  0.6666666870000029  0.2168797964470528   F   F   F
  0.3333333129999971  0.6666666870000029  0.2168797964470528   F   F   F
  0.6666666269999979  0.6666666870000029  0.2168797964470528   F   F   F
  0.1111111040000026  0.1111111120000032  0.3151212519782476   F   F   F
  0.4444444479999987  0.1111111120000032  0.3151212519782476   F   F   F
  0.7777777909999983  0.1111111120000032  0.3151212519782476   F   F   F
  0.1111110969999984  0.4444444479999987  0.3151212519782476   F   F   F
  0.4444444180000033  0.4444444479999987  0.3151212519782476   F   F   F
  0.7777777909999983  0.4444444479999987  0.3151212519782476   F   F   F
  0.1111111040000026  0.7777777909999983  0.3151212519782476   F   F   F
  0.4444444479999987  0.7777777909999983  0.3151212519782476   F   F   F
  0.7777777909999983  0.7777777909999983  0.3151212519782476   F   F   F
  0.8887012747242977  0.2225974665513988  0.4134361513426370   F   F   F
  0.2215522205225398  0.2215522355225374  0.4115672197710580   F   F   F
  0.5568954989549226  0.2215522355225374  0.4115672197710580   F   F   F
  0.8883014322922733  0.5558493138538623  0.4134182002185796   F   F   F
  0.2215522355225374  0.5568955589549205  0.4115672197710580   F   F   F
  0.5558493138538623  0.5558493138538623  0.4134182002185796   F   F   F
  0.8887012747242977  0.8887012747242977  0.4134361513426370   F   F   F
  0.2225974365514034  0.8887012747242977  0.4134361513426370   F   F   F
  0.5558492538538573  0.8883014322922733  0.4134182002185796   F   F   F
  0.0000000000000000  0.0000000000000000  0.5115024379625979   F   F   F
  0.3335074893021215  0.0057435738034570  0.5132180685932610   F   F   F
  0.6607488768944094  0.0057435738034570  0.5132180685932610   F   F   F
  0.0057435738034570  0.3335075193021169  0.5132180685932610   F   F   F
  0.6607489368944073  0.3335075193021169  0.5132180685932610   F   F   F
  0.0057435738034570  0.6607489368944073  0.5132180685932610   F   F   F
  0.3335074893021215  0.6607489368944073  0.5132180685932610   F   F   F
  0.6666666269999979  0.6666666870000029  0.5120452987324668   F   F   F
  0.3333333129999971  0.3333333429999996  0.5019968430865021   F   F   F
  0.3330430967724638  0.3339144036808861  0.5904280756325520   T   T   T
  0.2013669836265848  0.3319194763046909  0.6092594118252350   T   T   T
  0.4666950323871504  0.3319134004125033  0.6092778803146075   T   T   T
 
  0.00000000E+00  0.00000000E+00  0.00000000E+00
  0.00000000E+00  0.00000000E+00  0.00000000E+00
  0.00000000E+00  0.00000000E+00  0.00000000E+00
  0.00000000E+00  0.00000000E+00  0.00000000E+00
  0.00000000E+00  0.00000000E+00  0.00000000E+00
  0.00000000E+00  0.00000000E+00  0.00000000E+00
  0.00000000E+00  0.00000000E+00  0.00000000E+00
  0.00000000E+00  0.00000000E+00  0.00000000E+00
  0.00000000E+00  0.00000000E+00  0.00000000E+00
  0.00000000E+00  0.00000000E+00  0.00000000E+00
  0.00000000E+00  0.00000000E+00  0.00000000E+00
  0.00000000E+00  0.00000000E+00  0.00000000E+00
  0.00000000E+00  0.00000000E+00  0.00000000E+00
  0.00000000E+00  0.00000000E+00  0.00000000E+00
  0.00000000E+00  0.00000000E+00  0.00000000E+00
  0.00000000E+00  0.00000000E+00  0.00000000E+00
  0.00000000E+00  0.00000000E+00  0.00000000E+00
  0.00000000E+00  0.00000000E+00  0.00000000E+00
  0.00000000E+00  0.00000000E+00  0.00000000E+00
  0.00000000E+00  0.00000000E+00  0.00000000E+00
  0.00000000E+00  0.00000000E+00  0.00000000E+00
  0.00000000E+00  0.00000000E+00  0.00000000E+00
  0.00000000E+00  0.00000000E+00  0.00000000E+00
  0.00000000E+00  0.00000000E+00  0.00000000E+00
  0.00000000E+00  0.00000000E+00  0.00000000E+00
  0.00000000E+00  0.00000000E+00  0.00000000E+00
  0.00000000E+00  0.00000000E+00  0.00000000E+00
  0.00000000E+00  0.00000000E+00  0.00000000E+00
  0.00000000E+00  0.00000000E+00  0.00000000E+00
  0.00000000E+00  0.00000000E+00  0.00000000E+00
  0.00000000E+00  0.00000000E+00  0.00000000E+00
  0.00000000E+00  0.00000000E+00  0.00000000E+00
  0.00000000E+00  0.00000000E+00  0.00000000E+00
  0.00000000E+00  0.00000000E+00  0.00000000E+00
  0.00000000E+00  0.00000000E+00  0.00000000E+00
  0.00000000E+00  0.00000000E+00  0.00000000E+00
  0.00000000E+00  0.00000000E+00  0.00000000E+00
  0.00000000E+00  0.00000000E+00  0.00000000E+00
  0.00000000E+00  0.00000000E+00  0.00000000E+00
