Au-Zr-H2                                
   1.00000000000000     
     8.8135128021000000    0.0000000000000000    0.0000000000000000
     4.4067569092000003    7.6327256898000000    0.0000000000000000
     0.0000000000000000    0.0000000000000000   24.3076486773333755
   Au   Zr   H 
    35     1     2
Selective dynamics
Direct
  0.0000000000000000  0.0000000000000000  0.2172312097767986   F   F   F
  0.3333333429999996  0.0000000000000000  0.2172312097767986   F   F   F
  0.6666666870000029  0.0000000000000000  0.2172312097767986   F   F   F
  0.0000000000000000  0.3333333429999996  0.2172312097767986   F   F   F
  0.3333333129999971  0.3333333429999996  0.2172312097767986   F   F   F
  0.6666666870000029  0.3333333429999996  0.2172312097767986   F   F   F
  0.0000000000000000  0.6666666870000029  0.2172312097767986   F   F   F
  0.3333333429999996  0.6666666870000029  0.2172312097767986   F   F   F
  0.6666666269999979  0.6666666870000029  0.2172312097767986   F   F   F
  0.1111111190000003  0.1111111120000032  0.3159134866411222   F   F   F
  0.4444444180000033  0.1111111120000032  0.3159134866411222   F   F   F
  0.7777777909999983  0.1111111120000032  0.3159134866411222   F   F   F
  0.1111111270000009  0.4444444479999987  0.3159134866411222   F   F   F
  0.4444444780000012  0.4444444479999987  0.3159134866411222   F   F   F
  0.7777777310000005  0.4444444479999987  0.3159134866411222   F   F   F
  0.1111110900000014  0.7777777909999983  0.3159134866411222   F   F   F
  0.4444444479999987  0.7777777909999983  0.3159134866411222   F   F   F
  0.7777778510000033  0.7777777909999983  0.3159134866411222   F   F   F
  0.8889184086334012  0.2221631987331776  0.4143748342657290   F   F   F
  0.2227848346193824  0.2227848196193776  0.4140014113618093   F   F   F
  0.5544303907612331  0.2227848196193776  0.4140014113618093   F   F   F
  0.8878709338258588  0.5560645630870624  0.4143394388273194   F   F   F
  0.2227847896193822  0.5544303907612331  0.4140014113618093   F   F   F
  0.5560645630870624  0.5560645630870624  0.4143394388273194   F   F   F
  0.8889184086334012  0.8889184086334012  0.4143748342657290   F   F   F
  0.2221632287331801  0.8889184086334012  0.4143748342657290   F   F   F
  0.5560645030870575  0.8878709338258588  0.4143394388273194   F   F   F
  0.0000000000000000  0.0000000000000000  0.5141828951096628   F   F   F
  0.3335040881292599  0.0059414237387188  0.5167072743597600   F   F   F
  0.6605545181320167  0.0059414237387188  0.5167072743597600   F   F   F
  0.0059414237387188  0.3335040881292599  0.5167072743597600   F   F   F
  0.6605545181320167  0.3335040881292599  0.5167072743597600   F   F   F
  0.0059414237387188  0.6605545181320167  0.5167072743597600   F   F   F
  0.3335040881292599  0.6605545181320167  0.5167072743597600   F   F   F
  0.6666666269999979  0.6666666870000029  0.5145142901050690   F   F   F
  0.3333333129999971  0.3333333429999996  0.5090648055764504   F   F   F
  0.2886769880151618  0.3340264735738216  0.6001414945553023   T   T   T
  0.3772965074110104  0.3340264735738216  0.6001414945553023   T   T   T
 
  0.00000000E+00  0.00000000E+00  0.00000000E+00
  0.00000000E+00  0.00000000E+00  0.00000000E+00
  0.00000000E+00  0.00000000E+00  0.00000000E+00
  0.00000000E+00  0.00000000E+00  0.00000000E+00
  0.00000000E+00  0.00000000E+00  0.00000000E+00
  0.00000000E+00  0.00000000E+00  0.00000000E+00
  0.00000000E+00  0.00000000E+00  0.00000000E+00
  0.00000000E+00  0.00000000E+00  0.00000000E+00
  0.00000000E+00  0.00000000E+00  0.00000000E+00
  0.00000000E+00  0.00000000E+00  0.00000000E+00
  0.00000000E+00  0.00000000E+00  0.00000000E+00
  0.00000000E+00  0.00000000E+00  0.00000000E+00
  0.00000000E+00  0.00000000E+00  0.00000000E+00
  0.00000000E+00  0.00000000E+00  0.00000000E+00
  0.00000000E+00  0.00000000E+00  0.00000000E+00
  0.00000000E+00  0.00000000E+00  0.00000000E+00
  0.00000000E+00  0.00000000E+00  0.00000000E+00
  0.00000000E+00  0.00000000E+00  0.00000000E+00
  0.00000000E+00  0.00000000E+00  0.00000000E+00
  0.00000000E+00  0.00000000E+00  0.00000000E+00
  0.00000000E+00  0.00000000E+00  0.00000000E+00
  0.00000000E+00  0.00000000E+00  0.00000000E+00
  0.00000000E+00  0.00000000E+00  0.00000000E+00
  0.00000000E+00  0.00000000E+00  0.00000000E+00
  0.00000000E+00  0.00000000E+00  0.00000000E+00
  0.00000000E+00  0.00000000E+00  0.00000000E+00
  0.00000000E+00  0.00000000E+00  0.00000000E+00
  0.00000000E+00  0.00000000E+00  0.00000000E+00
  0.00000000E+00  0.00000000E+00  0.00000000E+00
  0.00000000E+00  0.00000000E+00  0.00000000E+00
  0.00000000E+00  0.00000000E+00  0.00000000E+00
  0.00000000E+00  0.00000000E+00  0.00000000E+00
  0.00000000E+00  0.00000000E+00  0.00000000E+00
  0.00000000E+00  0.00000000E+00  0.00000000E+00
  0.00000000E+00  0.00000000E+00  0.00000000E+00
  0.00000000E+00  0.00000000E+00  0.00000000E+00
  0.00000000E+00  0.00000000E+00  0.00000000E+00
  0.00000000E+00  0.00000000E+00  0.00000000E+00
