Au-Nb                                   
   1.00000000000000     
     8.8135128021000000    0.0000000000000000    0.0000000000000000
     4.4067569092000003    7.6327256898000000    0.0000000000000000
     0.0000000000000000    0.0000000000000000   22.1962032317999984
   Au   Nb
    35     1
Selective dynamics
Direct
  0.0000000000000000  0.0000000000000000  0.2378956379999977   F   F   F
  0.3333333429999996  0.0000000000000000  0.2378956379999977   F   F   F
  0.6666666870000029  0.0000000000000000  0.2378956379999977   F   F   F
  0.0000000000000000  0.3333333429999996  0.2378956379999977   F   F   F
  0.3333333129999971  0.3333333429999996  0.2378956379999977   F   F   F
  0.6666666870000029  0.3333333429999996  0.2378956379999977   F   F   F
  0.0000000000000000  0.6666666870000029  0.2378956379999977   F   F   F
  0.3333333429999996  0.6666666870000029  0.2378956379999977   F   F   F
  0.6666666269999979  0.6666666870000029  0.2378956379999977   F   F   F
  0.1111111190000003  0.1111111120000032  0.3459652069999990   F   F   F
  0.4444444180000033  0.1111111120000032  0.3459652069999990   F   F   F
  0.7777777909999983  0.1111111120000032  0.3459652069999990   F   F   F
  0.1111111270000009  0.4444444479999987  0.3459652069999990   F   F   F
  0.4444444780000012  0.4444444479999987  0.3459652069999990   F   F   F
  0.7777777310000005  0.4444444479999987  0.3459652069999990   F   F   F
  0.1111110900000014  0.7777777909999983  0.3459652069999990   F   F   F
  0.4444444479999987  0.7777777909999983  0.3459652069999990   F   F   F
  0.7777778510000033  0.7777777909999983  0.3459652069999990   F   F   F
  0.8886180228257601  0.2227639703484741  0.4544463329103081   T   T   T
  0.2220098510847492  0.2220098360847516  0.4526614012617998   T   T   T
  0.5559803578304994  0.2220098360847516  0.4526614012617998   T   T   T
  0.8866699189578924  0.5566650705210492  0.4536312217542360   T   T   T
  0.2220098060847491  0.5559803578304994  0.4526614012617998   T   T   T
  0.5566650705210492  0.5566650705210492  0.4536312217542360   T   T   T
  0.8886180228257601  0.8886180228257601  0.4544463329103081   T   T   T
  0.2227640003484765  0.8886180228257601  0.4544463329103081   T   T   T
  0.5566650105210513  0.8866699189578924  0.4536312217542360   T   T   T
  0.0000000000000000  0.0000000000000000  0.5631335602610790   T   T   T
  0.3337457840917821  0.0091833038679709  0.5657042034986404   T   T   T
  0.6570709420402565  0.0091833038679709  0.5657042034986404   T   T   T
  0.0091833038679709  0.3337457840917821  0.5657042034986404   T   T   T
  0.6570709420402565  0.3337457840917821  0.5657042034986404   T   T   T
  0.0091833038679709  0.6570709420402565  0.5657042034986404   T   T   T
  0.3337457840917821  0.6570709420402565  0.5657042034986404   T   T   T
  0.6666666269999979  0.6666666870000029  0.5633836422960528   T   T   T
  0.3333333129999971  0.3333333429999996  0.5516338691277411   T   T   T
 
  0.00000000E+00  0.00000000E+00  0.00000000E+00
  0.00000000E+00  0.00000000E+00  0.00000000E+00
  0.00000000E+00  0.00000000E+00  0.00000000E+00
  0.00000000E+00  0.00000000E+00  0.00000000E+00
  0.00000000E+00  0.00000000E+00  0.00000000E+00
  0.00000000E+00  0.00000000E+00  0.00000000E+00
  0.00000000E+00  0.00000000E+00  0.00000000E+00
  0.00000000E+00  0.00000000E+00  0.00000000E+00
  0.00000000E+00  0.00000000E+00  0.00000000E+00
  0.00000000E+00  0.00000000E+00  0.00000000E+00
  0.00000000E+00  0.00000000E+00  0.00000000E+00
  0.00000000E+00  0.00000000E+00  0.00000000E+00
  0.00000000E+00  0.00000000E+00  0.00000000E+00
  0.00000000E+00  0.00000000E+00  0.00000000E+00
  0.00000000E+00  0.00000000E+00  0.00000000E+00
  0.00000000E+00  0.00000000E+00  0.00000000E+00
  0.00000000E+00  0.00000000E+00  0.00000000E+00
  0.00000000E+00  0.00000000E+00  0.00000000E+00
  0.00000000E+00  0.00000000E+00  0.00000000E+00
  0.00000000E+00  0.00000000E+00  0.00000000E+00
  0.00000000E+00  0.00000000E+00  0.00000000E+00
  0.00000000E+00  0.00000000E+00  0.00000000E+00
  0.00000000E+00  0.00000000E+00  0.00000000E+00
  0.00000000E+00  0.00000000E+00  0.00000000E+00
  0.00000000E+00  0.00000000E+00  0.00000000E+00
  0.00000000E+00  0.00000000E+00  0.00000000E+00
  0.00000000E+00  0.00000000E+00  0.00000000E+00
  0.00000000E+00  0.00000000E+00  0.00000000E+00
  0.00000000E+00  0.00000000E+00  0.00000000E+00
  0.00000000E+00  0.00000000E+00  0.00000000E+00
  0.00000000E+00  0.00000000E+00  0.00000000E+00
  0.00000000E+00  0.00000000E+00  0.00000000E+00
  0.00000000E+00  0.00000000E+00  0.00000000E+00
  0.00000000E+00  0.00000000E+00  0.00000000E+00
  0.00000000E+00  0.00000000E+00  0.00000000E+00
  0.00000000E+00  0.00000000E+00  0.00000000E+00
