Ag-Ir-COH                               
   1.00000000000000     
     8.7913665770999998    0.0000000000000000    0.0000000000000000
     4.3956832885999999    7.6135467898000000    0.0000000000000000
     0.0000000000000000    0.0000000000000000   26.5797773967759703
   Ag   Ir   C    O    H 
    35     1     1     1     1
Selective dynamics
Direct
  0.0000000000000000  0.0000000000000000  0.1987295853882500   F   F   F
  0.3333333129999971  0.0000000000000000  0.1987295853882500   F   F   F
  0.6666666269999979  0.0000000000000000  0.1987295853882500   F   F   F
  0.0000000000000000  0.3333333429999996  0.1987295853882500   F   F   F
  0.3333333129999971  0.3333333429999996  0.1987295853882500   F   F   F
  0.6666666870000029  0.3333333429999996  0.1987295853882500   F   F   F
  0.0000000000000000  0.6666666870000029  0.1987295853882500   F   F   F
  0.3333333129999971  0.6666666870000029  0.1987295853882500   F   F   F
  0.6666666269999979  0.6666666870000029  0.1987295853882500   F   F   F
  0.1111111040000026  0.1111111120000032  0.2887494214702215   F   F   F
  0.4444444479999987  0.1111111120000032  0.2887494214702215   F   F   F
  0.7777777909999983  0.1111111120000032  0.2887494214702215   F   F   F
  0.1111110969999984  0.4444444479999987  0.2887494214702215   F   F   F
  0.4444444180000033  0.4444444479999987  0.2887494214702215   F   F   F
  0.7777777909999983  0.4444444479999987  0.2887494214702215   F   F   F
  0.1111111040000026  0.7777777909999983  0.2887494214702215   F   F   F
  0.4444444479999987  0.7777777909999983  0.2887494214702215   F   F   F
  0.7777777909999983  0.7777777909999983  0.2887494214702215   F   F   F
  0.8883527369991100  0.2232945420017671  0.3788026662284025   F   F   F
  0.2219279207052480  0.2219279357052528  0.3770864764504012   F   F   F
  0.5561440985894990  0.2219279357052528  0.3770864764504012   F   F   F
  0.8882489383328220  0.5558755608335915  0.3781767385316002   F   F   F
  0.2219279357052528  0.5561441585894968  0.3770864764504012   F   F   F
  0.5558755608335915  0.5558755608335915  0.3781767385316002   F   F   F
  0.8883527369991100  0.8883527369991100  0.3788026662284025   F   F   F
  0.2232945120017717  0.8883527369991100  0.3788026662284025   F   F   F
  0.5558755008335936  0.8882489383328220  0.3781767385316002   F   F   F
  0.0000000000000000  0.0000000000000000  0.4673538412359619   F   F   F
  0.3331020944374785  0.0065382780879233  0.4679644900935003   F   F   F
  0.6603595674746003  0.0065382780879233  0.4679644900935003   F   F   F
  0.0065382780879233  0.3331021244374810  0.4679644900935003   F   F   F
  0.6603596274745982  0.3331021244374810  0.4679644900935003   F   F   F
  0.0065382780879233  0.6603596274745982  0.4679644900935003   F   F   F
  0.3331020944374785  0.6603596274745982  0.4679644900935003   F   F   F
  0.6666666269999979  0.6666666870000029  0.4669586590810795   F   F   F
  0.3333333129999971  0.3333333429999996  0.4595106007540792   F   F   F
  0.3333333129999971  0.3333333429999996  0.5259825065057271   T   T   T
  0.3333333129999971  0.3333333429999996  0.5732789606043269   T   T   T
  0.3333333129999971  0.3333333429999996  0.6095514577726888   T   T   T
 
  0.00000000E+00  0.00000000E+00  0.00000000E+00
  0.00000000E+00  0.00000000E+00  0.00000000E+00
  0.00000000E+00  0.00000000E+00  0.00000000E+00
  0.00000000E+00  0.00000000E+00  0.00000000E+00
  0.00000000E+00  0.00000000E+00  0.00000000E+00
  0.00000000E+00  0.00000000E+00  0.00000000E+00
  0.00000000E+00  0.00000000E+00  0.00000000E+00
  0.00000000E+00  0.00000000E+00  0.00000000E+00
  0.00000000E+00  0.00000000E+00  0.00000000E+00
  0.00000000E+00  0.00000000E+00  0.00000000E+00
  0.00000000E+00  0.00000000E+00  0.00000000E+00
  0.00000000E+00  0.00000000E+00  0.00000000E+00
  0.00000000E+00  0.00000000E+00  0.00000000E+00
  0.00000000E+00  0.00000000E+00  0.00000000E+00
  0.00000000E+00  0.00000000E+00  0.00000000E+00
  0.00000000E+00  0.00000000E+00  0.00000000E+00
  0.00000000E+00  0.00000000E+00  0.00000000E+00
  0.00000000E+00  0.00000000E+00  0.00000000E+00
  0.00000000E+00  0.00000000E+00  0.00000000E+00
  0.00000000E+00  0.00000000E+00  0.00000000E+00
  0.00000000E+00  0.00000000E+00  0.00000000E+00
  0.00000000E+00  0.00000000E+00  0.00000000E+00
  0.00000000E+00  0.00000000E+00  0.00000000E+00
  0.00000000E+00  0.00000000E+00  0.00000000E+00
  0.00000000E+00  0.00000000E+00  0.00000000E+00
  0.00000000E+00  0.00000000E+00  0.00000000E+00
  0.00000000E+00  0.00000000E+00  0.00000000E+00
  0.00000000E+00  0.00000000E+00  0.00000000E+00
  0.00000000E+00  0.00000000E+00  0.00000000E+00
  0.00000000E+00  0.00000000E+00  0.00000000E+00
  0.00000000E+00  0.00000000E+00  0.00000000E+00
  0.00000000E+00  0.00000000E+00  0.00000000E+00
  0.00000000E+00  0.00000000E+00  0.00000000E+00
  0.00000000E+00  0.00000000E+00  0.00000000E+00
  0.00000000E+00  0.00000000E+00  0.00000000E+00
  0.00000000E+00  0.00000000E+00  0.00000000E+00
  0.00000000E+00  0.00000000E+00  0.00000000E+00
  0.00000000E+00  0.00000000E+00  0.00000000E+00
  0.00000000E+00  0.00000000E+00  0.00000000E+00
