Ag-Fe-COH                               
   1.00000000000000     
     8.7913665770999998    0.0000000000000000    0.0000000000000000
     4.3956832885999999    7.6135467898000000    0.0000000000000000
     0.0000000000000000    0.0000000000000000   26.5797773967759703
   Ag   Fe   C    O    H 
    35     1     1     1     1
Selective dynamics
Direct
  0.0000000000000000  0.0000000000000000  0.1987295853882500   F   F   F
  0.3333333129999971  0.0000000000000000  0.1987295853882500   F   F   F
  0.6666666269999979  0.0000000000000000  0.1987295853882500   F   F   F
  0.0000000000000000  0.3333333429999996  0.1987295853882500   F   F   F
  0.3333333129999971  0.3333333429999996  0.1987295853882500   F   F   F
  0.6666666870000029  0.3333333429999996  0.1987295853882500   F   F   F
  0.0000000000000000  0.6666666870000029  0.1987295853882500   F   F   F
  0.3333333129999971  0.6666666870000029  0.1987295853882500   F   F   F
  0.6666666269999979  0.6666666870000029  0.1987295853882500   F   F   F
  0.1111111040000026  0.1111111120000032  0.2887494214702215   F   F   F
  0.4444444479999987  0.1111111120000032  0.2887494214702215   F   F   F
  0.7777777909999983  0.1111111120000032  0.2887494214702215   F   F   F
  0.1111110969999984  0.4444444479999987  0.2887494214702215   F   F   F
  0.4444444180000033  0.4444444479999987  0.2887494214702215   F   F   F
  0.7777777909999983  0.4444444479999987  0.2887494214702215   F   F   F
  0.1111111040000026  0.7777777909999983  0.2887494214702215   F   F   F
  0.4444444479999987  0.7777777909999983  0.2887494214702215   F   F   F
  0.7777777909999983  0.7777777909999983  0.2887494214702215   F   F   F
  0.8887895449987369  0.2224209260025134  0.3785830091619431   F   F   F
  0.2231699221967887  0.2231699371967935  0.3777171516482980   F   F   F
  0.5536600956064319  0.2231699371967935  0.3777171516482980   F   F   F
  0.8882103500147878  0.5558948549926015  0.3781887610349202   F   F   F
  0.2231699371967935  0.5536601556064298  0.3777171516482980   F   F   F
  0.5558948549926015  0.5558948549926015  0.3781887610349202   F   F   F
  0.8887895449987369  0.8887895449987369  0.3785830091619431   F   F   F
  0.2224208960024967  0.8887895449987369  0.3785830091619431   F   F   F
  0.5558947949925965  0.8882103500147878  0.3781887610349202   F   F   F
  0.0000000000000000  0.0000000000000000  0.4675372985250590   F   F   F
  0.3331703856438608  0.0082735923931025  0.4675650241065270   F   F   F
  0.6585559619630317  0.0082735923931025  0.4675650241065270   F   F   F
  0.0082735923931025  0.3331704156438633  0.4675650241065270   F   F   F
  0.6585560219630366  0.3331704156438633  0.4675650241065270   F   F   F
  0.0082735923931025  0.6585560219630366  0.4675650241065270   F   F   F
  0.3331703856438608  0.6585560219630366  0.4675650241065270   F   F   F
  0.6666666269999979  0.6666666870000029  0.4673718275476375   F   F   F
  0.3333333129999971  0.3333333429999996  0.4571832402983773   F   F   F
  0.3333333129999971  0.3333333429999996  0.5190439723433613   T   T   T
  0.3333333129999971  0.3333333429999996  0.5667092726460154   T   T   T
  0.3333333129999971  0.3333333429999996  0.6028189016477725   T   T   T
 
  0.00000000E+00  0.00000000E+00  0.00000000E+00
  0.00000000E+00  0.00000000E+00  0.00000000E+00
  0.00000000E+00  0.00000000E+00  0.00000000E+00
  0.00000000E+00  0.00000000E+00  0.00000000E+00
  0.00000000E+00  0.00000000E+00  0.00000000E+00
  0.00000000E+00  0.00000000E+00  0.00000000E+00
  0.00000000E+00  0.00000000E+00  0.00000000E+00
  0.00000000E+00  0.00000000E+00  0.00000000E+00
  0.00000000E+00  0.00000000E+00  0.00000000E+00
  0.00000000E+00  0.00000000E+00  0.00000000E+00
  0.00000000E+00  0.00000000E+00  0.00000000E+00
  0.00000000E+00  0.00000000E+00  0.00000000E+00
  0.00000000E+00  0.00000000E+00  0.00000000E+00
  0.00000000E+00  0.00000000E+00  0.00000000E+00
  0.00000000E+00  0.00000000E+00  0.00000000E+00
  0.00000000E+00  0.00000000E+00  0.00000000E+00
  0.00000000E+00  0.00000000E+00  0.00000000E+00
  0.00000000E+00  0.00000000E+00  0.00000000E+00
  0.00000000E+00  0.00000000E+00  0.00000000E+00
  0.00000000E+00  0.00000000E+00  0.00000000E+00
  0.00000000E+00  0.00000000E+00  0.00000000E+00
  0.00000000E+00  0.00000000E+00  0.00000000E+00
  0.00000000E+00  0.00000000E+00  0.00000000E+00
  0.00000000E+00  0.00000000E+00  0.00000000E+00
  0.00000000E+00  0.00000000E+00  0.00000000E+00
  0.00000000E+00  0.00000000E+00  0.00000000E+00
  0.00000000E+00  0.00000000E+00  0.00000000E+00
  0.00000000E+00  0.00000000E+00  0.00000000E+00
  0.00000000E+00  0.00000000E+00  0.00000000E+00
  0.00000000E+00  0.00000000E+00  0.00000000E+00
  0.00000000E+00  0.00000000E+00  0.00000000E+00
  0.00000000E+00  0.00000000E+00  0.00000000E+00
  0.00000000E+00  0.00000000E+00  0.00000000E+00
  0.00000000E+00  0.00000000E+00  0.00000000E+00
  0.00000000E+00  0.00000000E+00  0.00000000E+00
  0.00000000E+00  0.00000000E+00  0.00000000E+00
  0.00000000E+00  0.00000000E+00  0.00000000E+00
  0.00000000E+00  0.00000000E+00  0.00000000E+00
  0.00000000E+00  0.00000000E+00  0.00000000E+00
