Ag-Cr-CO                                
   1.00000000000000     
     8.7913665770999998    0.0000000000000000    0.0000000000000000
     4.3956832885999999    7.6135467898000000    0.0000000000000000
     0.0000000000000000    0.0000000000000000   24.9171472229530799
   Ag   Cr   C    O 
    35     1     1     1
Selective dynamics
Direct
  0.0000000000000000  0.0000000000000000  0.2119900843587530   F   F   F
  0.3333333129999971  0.0000000000000000  0.2119900843587530   F   F   F
  0.6666666269999979  0.0000000000000000  0.2119900843587530   F   F   F
  0.0000000000000000  0.3333333429999996  0.2119900843587530   F   F   F
  0.3333333129999971  0.3333333429999996  0.2119900843587530   F   F   F
  0.6666666870000029  0.3333333429999996  0.2119900843587530   F   F   F
  0.0000000000000000  0.6666666870000029  0.2119900843587530   F   F   F
  0.3333333129999971  0.6666666870000029  0.2119900843587530   F   F   F
  0.6666666269999979  0.6666666870000029  0.2119900843587530   F   F   F
  0.1111111040000026  0.1111111120000032  0.3080166151226322   F   F   F
  0.4444444479999987  0.1111111120000032  0.3080166151226322   F   F   F
  0.7777777909999983  0.1111111120000032  0.3080166151226322   F   F   F
  0.1111110969999984  0.4444444479999987  0.3080166151226322   F   F   F
  0.4444444180000033  0.4444444479999987  0.3080166151226322   F   F   F
  0.7777777909999983  0.4444444479999987  0.3080166151226322   F   F   F
  0.1111111040000026  0.7777777909999983  0.3080166151226322   F   F   F
  0.4444444479999987  0.7777777909999983  0.3080166151226322   F   F   F
  0.7777777909999983  0.7777777909999983  0.3080166151226322   F   F   F
  0.8887677929961768  0.2224644300076406  0.4036741926900405   F   F   F
  0.2228907156961526  0.2228907306961503  0.4028986896325577   F   F   F
  0.5542185086076969  0.2228907306961503  0.4028986896325577   F   F   F
  0.8884731270342670  0.5557634664828583  0.4035052276521895   F   F   F
  0.2228907306961503  0.5542185686077019  0.4028986896325577   F   F   F
  0.5557634664828583  0.5557634664828583  0.4035052276521895   F   F   F
  0.8887677929961768  0.8887677929961768  0.4036741926900405   F   F   F
  0.2224644000076381  0.8887677929961768  0.4036741926900405   F   F   F
  0.5557634064828605  0.8884731270342670  0.4035052276521895   F   F   F
  0.0000000000000000  0.0000000000000000  0.4987098624071820   F   F   F
  0.3333747655694168  0.0071697982560721  0.4995112293120485   F   F   F
  0.6594553761745132  0.0071697982560721  0.4995112293120485   F   F   F
  0.0071697982560721  0.3333747955694193  0.4995112293120485   F   F   F
  0.6594554361745111  0.3333747955694193  0.4995112293120485   F   F   F
  0.0071697982560721  0.6594554361745111  0.4995112293120485   F   F   F
  0.3333747655694168  0.6594554361745111  0.4995112293120485   F   F   F
  0.6666666269999979  0.6666666870000029  0.4988155362881912   F   F   F
  0.3333333129999971  0.3333333429999996  0.4890965889739434   F   F   F
  0.3333333129999971  0.3333333429999996  0.5628649691651009   T   T   T
  0.3333333129999971  0.3333333429999996  0.6101814821502363   T   T   T
 
  0.00000000E+00  0.00000000E+00  0.00000000E+00
  0.00000000E+00  0.00000000E+00  0.00000000E+00
  0.00000000E+00  0.00000000E+00  0.00000000E+00
  0.00000000E+00  0.00000000E+00  0.00000000E+00
  0.00000000E+00  0.00000000E+00  0.00000000E+00
  0.00000000E+00  0.00000000E+00  0.00000000E+00
  0.00000000E+00  0.00000000E+00  0.00000000E+00
  0.00000000E+00  0.00000000E+00  0.00000000E+00
  0.00000000E+00  0.00000000E+00  0.00000000E+00
  0.00000000E+00  0.00000000E+00  0.00000000E+00
  0.00000000E+00  0.00000000E+00  0.00000000E+00
  0.00000000E+00  0.00000000E+00  0.00000000E+00
  0.00000000E+00  0.00000000E+00  0.00000000E+00
  0.00000000E+00  0.00000000E+00  0.00000000E+00
  0.00000000E+00  0.00000000E+00  0.00000000E+00
  0.00000000E+00  0.00000000E+00  0.00000000E+00
  0.00000000E+00  0.00000000E+00  0.00000000E+00
  0.00000000E+00  0.00000000E+00  0.00000000E+00
  0.00000000E+00  0.00000000E+00  0.00000000E+00
  0.00000000E+00  0.00000000E+00  0.00000000E+00
  0.00000000E+00  0.00000000E+00  0.00000000E+00
  0.00000000E+00  0.00000000E+00  0.00000000E+00
  0.00000000E+00  0.00000000E+00  0.00000000E+00
  0.00000000E+00  0.00000000E+00  0.00000000E+00
  0.00000000E+00  0.00000000E+00  0.00000000E+00
  0.00000000E+00  0.00000000E+00  0.00000000E+00
  0.00000000E+00  0.00000000E+00  0.00000000E+00
  0.00000000E+00  0.00000000E+00  0.00000000E+00
  0.00000000E+00  0.00000000E+00  0.00000000E+00
  0.00000000E+00  0.00000000E+00  0.00000000E+00
  0.00000000E+00  0.00000000E+00  0.00000000E+00
  0.00000000E+00  0.00000000E+00  0.00000000E+00
  0.00000000E+00  0.00000000E+00  0.00000000E+00
  0.00000000E+00  0.00000000E+00  0.00000000E+00
  0.00000000E+00  0.00000000E+00  0.00000000E+00
  0.00000000E+00  0.00000000E+00  0.00000000E+00
  0.00000000E+00  0.00000000E+00  0.00000000E+00
  0.00000000E+00  0.00000000E+00  0.00000000E+00
