Cu-Mn-COH                               
   1.00000000000000     
     7.6967864037000000    0.0000000000000000    0.0000000000000000
     3.8483927580000001    6.6656128092999998    0.0000000000000000
     0.0000000000000000    0.0000000000000000   26.1310625667187750
   Cu   Mn   C    O    H 
    35     1     1     1     1
Selective dynamics
Direct
  0.0000000000000000  0.0000000000000000  0.2055622356350710   F   F   F
  0.3333333429999996  0.0000000000000000  0.2055622356350710   F   F   F
  0.6666666870000029  0.0000000000000000  0.2055622356350710   F   F   F
  0.0000000000000000  0.3333333429999996  0.2055622356350710   F   F   F
  0.3333333129999971  0.3333333429999996  0.2055622356350710   F   F   F
  0.6666666870000029  0.3333333429999996  0.2055622356350710   F   F   F
  0.0000000000000000  0.6666666870000029  0.2055622356350710   F   F   F
  0.3333333730000021  0.6666666870000029  0.2055622356350710   F   F   F
  0.6666666269999979  0.6666666870000029  0.2055622356350710   F   F   F
  0.1111111190000003  0.1111111120000032  0.2857273750003415   F   F   F
  0.4444444180000033  0.1111111120000032  0.2857273750003415   F   F   F
  0.7777777909999983  0.1111111120000032  0.2857273750003415   F   F   F
  0.1111111190000003  0.4444444479999987  0.2857273750003415   F   F   F
  0.4444444780000012  0.4444444479999987  0.2857273750003415   F   F   F
  0.7777777310000005  0.4444444479999987  0.2857273750003415   F   F   F
  0.1111111120000032  0.7777777310000005  0.2857273750003415   F   F   F
  0.4444444780000012  0.7777777310000005  0.2857273750003415   F   F   F
  0.7777778510000033  0.7777777310000005  0.2857273750003415   F   F   F
  0.8887762695621504  0.2224474768757005  0.3655905295332502   F   F   F
  0.2223565406890700  0.2223565256890723  0.3651825663907573   F   F   F
  0.5552869786218508  0.2223565256890723  0.3651825663907573   F   F   F
  0.8883373186776780  0.5558313106611621  0.3657283552550723   F   F   F
  0.2223565106890675  0.5552869186218601  0.3651825663907573   F   F   F
  0.5558313706611600  0.5558313106611621  0.3657283552550723   F   F   F
  0.8887762695621504  0.8887762695621504  0.3655905295332502   F   F   F
  0.2224474918756982  0.8887762695621504  0.3655905295332502   F   F   F
  0.5558313106611621  0.8883373186776780  0.3657283552550723   F   F   F
  0.0000000000000000  0.0000000000000000  0.4451473342235133   F   F   F
  0.3330900897624289  0.0029644724184621  0.4455646048685580   F   F   F
  0.6639454678191186  0.0029644724184621  0.4455646048685580   F   F   F
  0.0029644724184621  0.3330900897624289  0.4455646048685580   F   F   F
  0.6639454678191186  0.3330900897624289  0.4455646048685580   F   F   F
  0.0029644724184621  0.6639454678191186  0.4455646048685580   F   F   F
  0.3330901197624314  0.6639454678191186  0.4455646048685580   F   F   F
  0.6666666269999979  0.6666666870000029  0.4452184970537019   F   F   F
  0.3333333129999971  0.3333333429999996  0.4411999063750116   F   F   F
  0.3333333129999971  0.3333333429999996  0.5054271304713670   T   T   T
  0.3333333129999971  0.3333333429999996  0.5540247092088467   T   T   T
  0.3333333129999971  0.3333333429999996  0.5906494141355675   T   T   T
 
  0.00000000E+00  0.00000000E+00  0.00000000E+00
  0.00000000E+00  0.00000000E+00  0.00000000E+00
  0.00000000E+00  0.00000000E+00  0.00000000E+00
  0.00000000E+00  0.00000000E+00  0.00000000E+00
  0.00000000E+00  0.00000000E+00  0.00000000E+00
  0.00000000E+00  0.00000000E+00  0.00000000E+00
  0.00000000E+00  0.00000000E+00  0.00000000E+00
  0.00000000E+00  0.00000000E+00  0.00000000E+00
  0.00000000E+00  0.00000000E+00  0.00000000E+00
  0.00000000E+00  0.00000000E+00  0.00000000E+00
  0.00000000E+00  0.00000000E+00  0.00000000E+00
  0.00000000E+00  0.00000000E+00  0.00000000E+00
  0.00000000E+00  0.00000000E+00  0.00000000E+00
  0.00000000E+00  0.00000000E+00  0.00000000E+00
  0.00000000E+00  0.00000000E+00  0.00000000E+00
  0.00000000E+00  0.00000000E+00  0.00000000E+00
  0.00000000E+00  0.00000000E+00  0.00000000E+00
  0.00000000E+00  0.00000000E+00  0.00000000E+00
  0.00000000E+00  0.00000000E+00  0.00000000E+00
  0.00000000E+00  0.00000000E+00  0.00000000E+00
  0.00000000E+00  0.00000000E+00  0.00000000E+00
  0.00000000E+00  0.00000000E+00  0.00000000E+00
  0.00000000E+00  0.00000000E+00  0.00000000E+00
  0.00000000E+00  0.00000000E+00  0.00000000E+00
  0.00000000E+00  0.00000000E+00  0.00000000E+00
  0.00000000E+00  0.00000000E+00  0.00000000E+00
  0.00000000E+00  0.00000000E+00  0.00000000E+00
  0.00000000E+00  0.00000000E+00  0.00000000E+00
  0.00000000E+00  0.00000000E+00  0.00000000E+00
  0.00000000E+00  0.00000000E+00  0.00000000E+00
  0.00000000E+00  0.00000000E+00  0.00000000E+00
  0.00000000E+00  0.00000000E+00  0.00000000E+00
  0.00000000E+00  0.00000000E+00  0.00000000E+00
  0.00000000E+00  0.00000000E+00  0.00000000E+00
  0.00000000E+00  0.00000000E+00  0.00000000E+00
  0.00000000E+00  0.00000000E+00  0.00000000E+00
  0.00000000E+00  0.00000000E+00  0.00000000E+00
  0.00000000E+00  0.00000000E+00  0.00000000E+00
  0.00000000E+00  0.00000000E+00  0.00000000E+00
