Au-Hf-OOH                               
   1.00000000000000     
     8.8135128021000000    0.0000000000000000    0.0000000000000000
     4.4067569092000003    7.6327256898000000    0.0000000000000000
     0.0000000000000000    0.0000000000000000   25.9228484302073312
   Au   Hf   O    H 
    35     1     2     1
Selective dynamics
Direct
  0.0000000000000000  0.0000000000000000  0.2036959766679587   F   F   F
  0.3333333429999996  0.0000000000000000  0.2036959766679587   F   F   F
  0.6666666870000029  0.0000000000000000  0.2036959766679587   F   F   F
  0.0000000000000000  0.3333333429999996  0.2036959766679587   F   F   F
  0.3333333129999971  0.3333333429999996  0.2036959766679587   F   F   F
  0.6666666870000029  0.3333333429999996  0.2036959766679587   F   F   F
  0.0000000000000000  0.6666666870000029  0.2036959766679587   F   F   F
  0.3333333429999996  0.6666666870000029  0.2036959766679587   F   F   F
  0.6666666269999979  0.6666666870000029  0.2036959766679587   F   F   F
  0.1111111190000003  0.1111111120000032  0.2962295623638127   F   F   F
  0.4444444180000033  0.1111111120000032  0.2962295623638127   F   F   F
  0.7777777909999983  0.1111111120000032  0.2962295623638127   F   F   F
  0.1111111270000009  0.4444444479999987  0.2962295623638127   F   F   F
  0.4444444780000012  0.4444444479999987  0.2962295623638127   F   F   F
  0.7777777310000005  0.4444444479999987  0.2962295623638127   F   F   F
  0.1111110900000014  0.7777777909999983  0.2962295623638127   F   F   F
  0.4444444479999987  0.7777777909999983  0.2962295623638127   F   F   F
  0.7777778510000033  0.7777777909999983  0.2962295623638127   F   F   F
  0.8888755800425869  0.2222488559148204  0.3886411809196133   F   F   F
  0.2226414042061009  0.2226413892061032  0.3881237192698990   F   F   F
  0.5547172515877890  0.2226413892061032  0.3881237192698990   F   F   F
  0.8873408608288571  0.5563295995855668  0.3884554478817535   F   F   F
  0.2226413592061007  0.5547172515877890  0.3881237192698990   F   F   F
  0.5563295995855668  0.5563295995855668  0.3884554478817535   F   F   F
  0.8888755800425869  0.8888755800425869  0.3886411809196133   F   F   F
  0.2222488859148228  0.8888755800425869  0.3886411809196133   F   F   F
  0.5563295395855690  0.8873408608288571  0.3884554478817535   F   F   F
  0.0000000000000000  0.0000000000000000  0.4820735714629691   F   F   F
  0.3338754718482377  0.0078634981941406  0.4844700903153480   F   F   F
  0.6582610599576313  0.0078634981941406  0.4844700903153480   F   F   F
  0.0078634981941406  0.3338754718482377  0.4844700903153480   F   F   F
  0.6582610599576313  0.3338754718482377  0.4844700903153480   F   F   F
  0.0078634981941406  0.6582610599576313  0.4844700903153480   F   F   F
  0.3338754718482377  0.6582610599576313  0.4844700903153480   F   F   F
  0.6666666269999979  0.6666666870000029  0.4825052904351281   F   F   F
  0.3333333129999971  0.3333333429999996  0.4749303679487014   F   F   F
  0.3344064758396428  0.3329711264917350  0.5487107762790728   T   T   T
  0.3320274285327471  0.3330449919411791  0.6029387733272529   T   T   T
  0.4407598630191245  0.3338835915524498  0.6108030416192420   T   T   T
 
  0.00000000E+00  0.00000000E+00  0.00000000E+00
  0.00000000E+00  0.00000000E+00  0.00000000E+00
  0.00000000E+00  0.00000000E+00  0.00000000E+00
  0.00000000E+00  0.00000000E+00  0.00000000E+00
  0.00000000E+00  0.00000000E+00  0.00000000E+00
  0.00000000E+00  0.00000000E+00  0.00000000E+00
  0.00000000E+00  0.00000000E+00  0.00000000E+00
  0.00000000E+00  0.00000000E+00  0.00000000E+00
  0.00000000E+00  0.00000000E+00  0.00000000E+00
  0.00000000E+00  0.00000000E+00  0.00000000E+00
  0.00000000E+00  0.00000000E+00  0.00000000E+00
  0.00000000E+00  0.00000000E+00  0.00000000E+00
  0.00000000E+00  0.00000000E+00  0.00000000E+00
  0.00000000E+00  0.00000000E+00  0.00000000E+00
  0.00000000E+00  0.00000000E+00  0.00000000E+00
  0.00000000E+00  0.00000000E+00  0.00000000E+00
  0.00000000E+00  0.00000000E+00  0.00000000E+00
  0.00000000E+00  0.00000000E+00  0.00000000E+00
  0.00000000E+00  0.00000000E+00  0.00000000E+00
  0.00000000E+00  0.00000000E+00  0.00000000E+00
  0.00000000E+00  0.00000000E+00  0.00000000E+00
  0.00000000E+00  0.00000000E+00  0.00000000E+00
  0.00000000E+00  0.00000000E+00  0.00000000E+00
  0.00000000E+00  0.00000000E+00  0.00000000E+00
  0.00000000E+00  0.00000000E+00  0.00000000E+00
  0.00000000E+00  0.00000000E+00  0.00000000E+00
  0.00000000E+00  0.00000000E+00  0.00000000E+00
  0.00000000E+00  0.00000000E+00  0.00000000E+00
  0.00000000E+00  0.00000000E+00  0.00000000E+00
  0.00000000E+00  0.00000000E+00  0.00000000E+00
  0.00000000E+00  0.00000000E+00  0.00000000E+00
  0.00000000E+00  0.00000000E+00  0.00000000E+00
  0.00000000E+00  0.00000000E+00  0.00000000E+00
  0.00000000E+00  0.00000000E+00  0.00000000E+00
  0.00000000E+00  0.00000000E+00  0.00000000E+00
  0.00000000E+00  0.00000000E+00  0.00000000E+00
  0.00000000E+00  0.00000000E+00  0.00000000E+00
  0.00000000E+00  0.00000000E+00  0.00000000E+00
  0.00000000E+00  0.00000000E+00  0.00000000E+00
