Ag-V-H2                                 
   1.00000000000000     
     8.7913665770999998    0.0000000000000000    0.0000000000000000
     4.3956832885999999    7.6135467898000000    0.0000000000000000
     0.0000000000000000    0.0000000000000000   24.0060125285072843
   Ag   V    H 
    35     1     2
Selective dynamics
Direct
  0.0000000000000000  0.0000000000000000  0.2200360486982476   F   F   F
  0.3333333129999971  0.0000000000000000  0.2200360486982476   F   F   F
  0.6666666269999979  0.0000000000000000  0.2200360486982476   F   F   F
  0.0000000000000000  0.3333333429999996  0.2200360486982476   F   F   F
  0.3333333129999971  0.3333333429999996  0.2200360486982476   F   F   F
  0.6666666870000029  0.3333333429999996  0.2200360486982476   F   F   F
  0.0000000000000000  0.6666666870000029  0.2200360486982476   F   F   F
  0.3333333129999971  0.6666666870000029  0.2200360486982476   F   F   F
  0.6666666269999979  0.6666666870000029  0.2200360486982476   F   F   F
  0.1111111040000026  0.1111111120000032  0.3197072123915774   F   F   F
  0.4444444479999987  0.1111111120000032  0.3197072123915774   F   F   F
  0.7777777909999983  0.1111111120000032  0.3197072123915774   F   F   F
  0.1111110969999984  0.4444444479999987  0.3197072123915774   F   F   F
  0.4444444180000033  0.4444444479999987  0.3197072123915774   F   F   F
  0.7777777909999983  0.4444444479999987  0.3197072123915774   F   F   F
  0.1111111040000026  0.7777777909999983  0.3197072123915774   F   F   F
  0.4444444479999987  0.7777777909999983  0.3197072123915774   F   F   F
  0.7777777909999983  0.7777777909999983  0.3197072123915774   F   F   F
  0.8888465865274071  0.2223068429451729  0.4189100239380323   F   F   F
  0.2226445376378621  0.2226445526378598  0.4181606586944113   F   F   F
  0.5547108647242922  0.2226445526378598  0.4181606586944113   F   F   F
  0.8885295266626585  0.5557352666686697  0.4188600986873396   F   F   F
  0.2226445526378598  0.5547109247242830  0.4181606586944113   F   F   F
  0.5557352666686697  0.5557352666686697  0.4188600986873396   F   F   F
  0.8888465865274071  0.8888465865274071  0.4189100239380323   F   F   F
  0.2223068129451704  0.8888465865274071  0.4189100239380323   F   F   F
  0.5557352066686718  0.8885295266626585  0.4188600986873396   F   F   F
  0.0000000000000000  0.0000000000000000  0.5177608394915296   F   F   F
  0.3335758635562769  0.0061119851352132  0.5187612601085121   F   F   F
  0.6603120913084979  0.0061119851352132  0.5187612601085121   F   F   F
  0.0061119851352132  0.3335758935562794  0.5187612601085121   F   F   F
  0.6603121513085100  0.3335758935562794  0.5187612601085121   F   F   F
  0.0061119851352132  0.6603121513085100  0.5187612601085121   F   F   F
  0.3335758635562769  0.6603121513085100  0.5187612601085121   F   F   F
  0.6666666269999979  0.6666666870000029  0.5180686320130334   F   F   F
  0.3333333129999971  0.3333333429999996  0.5089014368099498   F   F   F
  0.2835069070662755  0.3340530189047541  0.5810754277062671   T   T   T
  0.3824400430289714  0.3340530189047541  0.5810754277062671   T   T   T
 
  0.00000000E+00  0.00000000E+00  0.00000000E+00
  0.00000000E+00  0.00000000E+00  0.00000000E+00
  0.00000000E+00  0.00000000E+00  0.00000000E+00
  0.00000000E+00  0.00000000E+00  0.00000000E+00
  0.00000000E+00  0.00000000E+00  0.00000000E+00
  0.00000000E+00  0.00000000E+00  0.00000000E+00
  0.00000000E+00  0.00000000E+00  0.00000000E+00
  0.00000000E+00  0.00000000E+00  0.00000000E+00
  0.00000000E+00  0.00000000E+00  0.00000000E+00
  0.00000000E+00  0.00000000E+00  0.00000000E+00
  0.00000000E+00  0.00000000E+00  0.00000000E+00
  0.00000000E+00  0.00000000E+00  0.00000000E+00
  0.00000000E+00  0.00000000E+00  0.00000000E+00
  0.00000000E+00  0.00000000E+00  0.00000000E+00
  0.00000000E+00  0.00000000E+00  0.00000000E+00
  0.00000000E+00  0.00000000E+00  0.00000000E+00
  0.00000000E+00  0.00000000E+00  0.00000000E+00
  0.00000000E+00  0.00000000E+00  0.00000000E+00
  0.00000000E+00  0.00000000E+00  0.00000000E+00
  0.00000000E+00  0.00000000E+00  0.00000000E+00
  0.00000000E+00  0.00000000E+00  0.00000000E+00
  0.00000000E+00  0.00000000E+00  0.00000000E+00
  0.00000000E+00  0.00000000E+00  0.00000000E+00
  0.00000000E+00  0.00000000E+00  0.00000000E+00
  0.00000000E+00  0.00000000E+00  0.00000000E+00
  0.00000000E+00  0.00000000E+00  0.00000000E+00
  0.00000000E+00  0.00000000E+00  0.00000000E+00
  0.00000000E+00  0.00000000E+00  0.00000000E+00
  0.00000000E+00  0.00000000E+00  0.00000000E+00
  0.00000000E+00  0.00000000E+00  0.00000000E+00
  0.00000000E+00  0.00000000E+00  0.00000000E+00
  0.00000000E+00  0.00000000E+00  0.00000000E+00
  0.00000000E+00  0.00000000E+00  0.00000000E+00
  0.00000000E+00  0.00000000E+00  0.00000000E+00
  0.00000000E+00  0.00000000E+00  0.00000000E+00
  0.00000000E+00  0.00000000E+00  0.00000000E+00
  0.00000000E+00  0.00000000E+00  0.00000000E+00
  0.00000000E+00  0.00000000E+00  0.00000000E+00
