Ag-Nb-H2O                               
   1.00000000000000     
     8.7913665770999998    0.0000000000000000    0.0000000000000000
     4.3956832885999999    7.6135467898000000    0.0000000000000000
     0.0000000000000000    0.0000000000000000   24.9519635624615859
   Ag   Nb   H    O 
    35     1     2     1
Selective dynamics
Direct
  0.0000000000000000  0.0000000000000000  0.2116942872471981   F   F   F
  0.3333333129999971  0.0000000000000000  0.2116942872471981   F   F   F
  0.6666666269999979  0.0000000000000000  0.2116942872471981   F   F   F
  0.0000000000000000  0.3333333429999996  0.2116942872471981   F   F   F
  0.3333333129999971  0.3333333429999996  0.2116942872471981   F   F   F
  0.6666666870000029  0.3333333429999996  0.2116942872471981   F   F   F
  0.0000000000000000  0.6666666870000029  0.2116942872471981   F   F   F
  0.3333333129999971  0.6666666870000029  0.2116942872471981   F   F   F
  0.6666666269999979  0.6666666870000029  0.2116942872471981   F   F   F
  0.1111111040000026  0.1111111120000032  0.3075868288647499   F   F   F
  0.4444444479999987  0.1111111120000032  0.3075868288647499   F   F   F
  0.7777777909999983  0.1111111120000032  0.3075868288647499   F   F   F
  0.1111110969999984  0.4444444479999987  0.3075868288647499   F   F   F
  0.4444444180000033  0.4444444479999987  0.3075868288647499   F   F   F
  0.7777777909999983  0.4444444479999987  0.3075868288647499   F   F   F
  0.1111111040000026  0.7777777909999983  0.3075868288647499   F   F   F
  0.4444444479999987  0.7777777909999983  0.3075868288647499   F   F   F
  0.7777777909999983  0.7777777909999983  0.3075868288647499   F   F   F
  0.8888749298558167  0.2222501562883608  0.4032279470093627   F   F   F
  0.2220022804599822  0.2220022954599727  0.4020743058876377   F   F   F
  0.5559953790800591  0.2220022954599727  0.4020743058876377   F   F   F
  0.8885842918771516  0.5557078840614196  0.4035770482712309   F   F   F
  0.2220022954599727  0.5559954390800570  0.4020743058876377   F   F   F
  0.5557078840614196  0.5557078840614196  0.4035770482712309   F   F   F
  0.8888749298558167  0.8888749298558167  0.4032279470093627   F   F   F
  0.2222501262883583  0.8888749298558167  0.4032279470093627   F   F   F
  0.5557078240614217  0.8885842918771516  0.4035770482712309   F   F   F
  0.0000000000000000  0.0000000000000000  0.4990535752120024   F   F   F
  0.3334557396958928  0.0035190010634025  0.5004598022993179   F   F   F
  0.6630251992407068  0.0035190010634025  0.5004598022993179   F   F   F
  0.0035190010634025  0.3334557696958882  0.5004598022993179   F   F   F
  0.6630252592407189  0.3334557696958882  0.5004598022993179   F   F   F
  0.0035190010634025  0.6630252592407189  0.5004598022993179   F   F   F
  0.3334557396958928  0.6630252592407189  0.5004598022993179   F   F   F
  0.6666666269999979  0.6666666870000029  0.4996486063283498   F   F   F
  0.3333333129999971  0.3333333429999996  0.4925167631593226   F   F   F
  0.2773755778122151  0.2649719611241750  0.5946475146689423   T   T   T
  0.4575512069604031  0.2630816168243584  0.5945218479290872   T   T   T
  0.3333952140641259  0.3330945702331505  0.5844318966407727   T   T   T
 
  0.00000000E+00  0.00000000E+00  0.00000000E+00
  0.00000000E+00  0.00000000E+00  0.00000000E+00
  0.00000000E+00  0.00000000E+00  0.00000000E+00
  0.00000000E+00  0.00000000E+00  0.00000000E+00
  0.00000000E+00  0.00000000E+00  0.00000000E+00
  0.00000000E+00  0.00000000E+00  0.00000000E+00
  0.00000000E+00  0.00000000E+00  0.00000000E+00
  0.00000000E+00  0.00000000E+00  0.00000000E+00
  0.00000000E+00  0.00000000E+00  0.00000000E+00
  0.00000000E+00  0.00000000E+00  0.00000000E+00
  0.00000000E+00  0.00000000E+00  0.00000000E+00
  0.00000000E+00  0.00000000E+00  0.00000000E+00
  0.00000000E+00  0.00000000E+00  0.00000000E+00
  0.00000000E+00  0.00000000E+00  0.00000000E+00
  0.00000000E+00  0.00000000E+00  0.00000000E+00
  0.00000000E+00  0.00000000E+00  0.00000000E+00
  0.00000000E+00  0.00000000E+00  0.00000000E+00
  0.00000000E+00  0.00000000E+00  0.00000000E+00
  0.00000000E+00  0.00000000E+00  0.00000000E+00
  0.00000000E+00  0.00000000E+00  0.00000000E+00
  0.00000000E+00  0.00000000E+00  0.00000000E+00
  0.00000000E+00  0.00000000E+00  0.00000000E+00
  0.00000000E+00  0.00000000E+00  0.00000000E+00
  0.00000000E+00  0.00000000E+00  0.00000000E+00
  0.00000000E+00  0.00000000E+00  0.00000000E+00
  0.00000000E+00  0.00000000E+00  0.00000000E+00
  0.00000000E+00  0.00000000E+00  0.00000000E+00
  0.00000000E+00  0.00000000E+00  0.00000000E+00
  0.00000000E+00  0.00000000E+00  0.00000000E+00
  0.00000000E+00  0.00000000E+00  0.00000000E+00
  0.00000000E+00  0.00000000E+00  0.00000000E+00
  0.00000000E+00  0.00000000E+00  0.00000000E+00
  0.00000000E+00  0.00000000E+00  0.00000000E+00
  0.00000000E+00  0.00000000E+00  0.00000000E+00
  0.00000000E+00  0.00000000E+00  0.00000000E+00
  0.00000000E+00  0.00000000E+00  0.00000000E+00
  0.00000000E+00  0.00000000E+00  0.00000000E+00
  0.00000000E+00  0.00000000E+00  0.00000000E+00
  0.00000000E+00  0.00000000E+00  0.00000000E+00
