Au-Fe-OOH                               
   1.00000000000000     
     8.8135128021000000    0.0000000000000000    0.0000000000000000
     4.4067569092000003    7.6327256898000000    0.0000000000000000
     0.0000000000000000    0.0000000000000000   25.9228484302073312
   Au   Fe   O    H 
    35     1     2     1
Selective dynamics
Direct
  0.0000000000000000  0.0000000000000000  0.2036959766679587   F   F   F
  0.3333333429999996  0.0000000000000000  0.2036959766679587   F   F   F
  0.6666666870000029  0.0000000000000000  0.2036959766679587   F   F   F
  0.0000000000000000  0.3333333429999996  0.2036959766679587   F   F   F
  0.3333333129999971  0.3333333429999996  0.2036959766679587   F   F   F
  0.6666666870000029  0.3333333429999996  0.2036959766679587   F   F   F
  0.0000000000000000  0.6666666870000029  0.2036959766679587   F   F   F
  0.3333333429999996  0.6666666870000029  0.2036959766679587   F   F   F
  0.6666666269999979  0.6666666870000029  0.2036959766679587   F   F   F
  0.1111111190000003  0.1111111120000032  0.2962295623638127   F   F   F
  0.4444444180000033  0.1111111120000032  0.2962295623638127   F   F   F
  0.7777777909999983  0.1111111120000032  0.2962295623638127   F   F   F
  0.1111111270000009  0.4444444479999987  0.2962295623638127   F   F   F
  0.4444444780000012  0.4444444479999987  0.2962295623638127   F   F   F
  0.7777777310000005  0.4444444479999987  0.2962295623638127   F   F   F
  0.1111110900000014  0.7777777909999983  0.2962295623638127   F   F   F
  0.4444444479999987  0.7777777909999983  0.2962295623638127   F   F   F
  0.7777778510000033  0.7777777909999983  0.2962295623638127   F   F   F
  0.8888977238053712  0.2222045683892588  0.3886607570887222   F   F   F
  0.2233416758201230  0.2233416608201324  0.3877151559726073   F   F   F
  0.5533167083597377  0.2233416608201324  0.3877151559726073   F   F   F
  0.8867027054939101  0.5566486772530368  0.3881195679624625   F   F   F
  0.2233416308201228  0.5533167083597377  0.3877151559726073   F   F   F
  0.5566486772530368  0.5566486772530368  0.3881195679624625   F   F   F
  0.8888977238053712  0.8888977238053712  0.3886607570887222   F   F   F
  0.2222045983892613  0.8888977238053712  0.3886607570887222   F   F   F
  0.5566486172530531  0.8867027054939101  0.3881195679624625   F   F   F
  0.0000000000000000  0.0000000000000000  0.4816978183709182   F   F   F
  0.3334090100058518  0.0097494303455079  0.4810122424641818   F   F   F
  0.6568415896486428  0.0097494303455079  0.4810122424641818   F   F   F
  0.0097494303455079  0.3334090100058518  0.4810122424641818   F   F   F
  0.6568415896486428  0.3334090100058518  0.4810122424641818   F   F   F
  0.0097494303455079  0.6568415896486428  0.4810122424641818   F   F   F
  0.3334090100058518  0.6568415896486428  0.4810122424641818   F   F   F
  0.6666666269999979  0.6666666870000029  0.4818844878330211   F   F   F
  0.3333333129999971  0.3333333429999996  0.4691022071641413   F   F   F
  0.3502819445878771  0.3389546507663255  0.5341361881615256   T   T   T
  0.2684338070819052  0.2493737627537058  0.5704799259767341   T   T   T
  0.3001281038328685  0.2791143740122308  0.6038032878894555   T   T   T
 
  0.00000000E+00  0.00000000E+00  0.00000000E+00
  0.00000000E+00  0.00000000E+00  0.00000000E+00
  0.00000000E+00  0.00000000E+00  0.00000000E+00
  0.00000000E+00  0.00000000E+00  0.00000000E+00
  0.00000000E+00  0.00000000E+00  0.00000000E+00
  0.00000000E+00  0.00000000E+00  0.00000000E+00
  0.00000000E+00  0.00000000E+00  0.00000000E+00
  0.00000000E+00  0.00000000E+00  0.00000000E+00
  0.00000000E+00  0.00000000E+00  0.00000000E+00
  0.00000000E+00  0.00000000E+00  0.00000000E+00
  0.00000000E+00  0.00000000E+00  0.00000000E+00
  0.00000000E+00  0.00000000E+00  0.00000000E+00
  0.00000000E+00  0.00000000E+00  0.00000000E+00
  0.00000000E+00  0.00000000E+00  0.00000000E+00
  0.00000000E+00  0.00000000E+00  0.00000000E+00
  0.00000000E+00  0.00000000E+00  0.00000000E+00
  0.00000000E+00  0.00000000E+00  0.00000000E+00
  0.00000000E+00  0.00000000E+00  0.00000000E+00
  0.00000000E+00  0.00000000E+00  0.00000000E+00
  0.00000000E+00  0.00000000E+00  0.00000000E+00
  0.00000000E+00  0.00000000E+00  0.00000000E+00
  0.00000000E+00  0.00000000E+00  0.00000000E+00
  0.00000000E+00  0.00000000E+00  0.00000000E+00
  0.00000000E+00  0.00000000E+00  0.00000000E+00
  0.00000000E+00  0.00000000E+00  0.00000000E+00
  0.00000000E+00  0.00000000E+00  0.00000000E+00
  0.00000000E+00  0.00000000E+00  0.00000000E+00
  0.00000000E+00  0.00000000E+00  0.00000000E+00
  0.00000000E+00  0.00000000E+00  0.00000000E+00
  0.00000000E+00  0.00000000E+00  0.00000000E+00
  0.00000000E+00  0.00000000E+00  0.00000000E+00
  0.00000000E+00  0.00000000E+00  0.00000000E+00
  0.00000000E+00  0.00000000E+00  0.00000000E+00
  0.00000000E+00  0.00000000E+00  0.00000000E+00
  0.00000000E+00  0.00000000E+00  0.00000000E+00
  0.00000000E+00  0.00000000E+00  0.00000000E+00
  0.00000000E+00  0.00000000E+00  0.00000000E+00
  0.00000000E+00  0.00000000E+00  0.00000000E+00
  0.00000000E+00  0.00000000E+00  0.00000000E+00
