Ag-Nb-H2                                
   1.00000000000000     
     8.7913665770999998    0.0000000000000000    0.0000000000000000
     4.3956832885999999    7.6135467898000000    0.0000000000000000
     0.0000000000000000    0.0000000000000000   23.8784411658159996
   Ag   Nb   H 
    35     1     2
Selective dynamics
Direct
  0.0000000000000000  0.0000000000000000  0.2212115985751666   F   F   F
  0.3333333129999971  0.0000000000000000  0.2212115985751666   F   F   F
  0.6666666269999979  0.0000000000000000  0.2212115985751666   F   F   F
  0.0000000000000000  0.3333333429999996  0.2212115985751666   F   F   F
  0.3333333129999971  0.3333333429999996  0.2212115985751666   F   F   F
  0.6666666870000029  0.3333333429999996  0.2212115985751666   F   F   F
  0.0000000000000000  0.6666666870000029  0.2212115985751666   F   F   F
  0.3333333129999971  0.6666666870000029  0.2212115985751666   F   F   F
  0.6666666269999979  0.6666666870000029  0.2212115985751666   F   F   F
  0.1111111040000026  0.1111111120000032  0.3214152587612631   F   F   F
  0.4444444479999987  0.1111111120000032  0.3214152587612631   F   F   F
  0.7777777909999983  0.1111111120000032  0.3214152587612631   F   F   F
  0.1111110969999984  0.4444444479999987  0.3214152587612631   F   F   F
  0.4444444180000033  0.4444444479999987  0.3214152587612631   F   F   F
  0.7777777909999983  0.4444444479999987  0.3214152587612631   F   F   F
  0.1111111040000026  0.7777777909999983  0.3214152587612631   F   F   F
  0.4444444479999987  0.7777777909999983  0.3214152587612631   F   F   F
  0.7777777909999983  0.7777777909999983  0.3214152587612631   F   F   F
  0.8888749298558167  0.2222501562883608  0.4213561920259394   F   F   F
  0.2220022804599822  0.2220022954599727  0.4201506857270374   F   F   F
  0.5559953790800591  0.2220022954599727  0.4201506857270374   F   F   F
  0.8885842918771374  0.5557078840614196  0.4217209881156592   F   F   F
  0.2220022954599727  0.5559954390800570  0.4201506857270374   F   F   F
  0.5557078840614196  0.5557078840614196  0.4217209881156592   F   F   F
  0.8888749298558167  0.8888749298558167  0.4213561920259394   F   F   F
  0.2222501262883583  0.8888749298558167  0.4213561920259394   F   F   F
  0.5557078240614217  0.8885842918771374  0.4217209881156592   F   F   F
  0.0000000000000000  0.0000000000000000  0.5214899305166014   F   F   F
  0.3334557396958928  0.0035190010634025  0.5229593784926934   F   F   F
  0.6630251992407068  0.0035190010634025  0.5229593784926934   F   F   F
  0.0035190010634025  0.3334557696958882  0.5229593784926934   F   F   F
  0.6630252592407189  0.3334557696958882  0.5229593784926934   F   F   F
  0.0035190010634025  0.6630252592407189  0.5229593784926934   F   F   F
  0.3334557396958928  0.6630252592407189  0.5229593784926934   F   F   F
  0.6666666269999979  0.6666666870000029  0.5221117129282078   F   F   F
  0.3333333129999971  0.3333333429999996  0.5146592377163230   F   F   F
  0.2828820328144275  0.3353287617177472  0.5930298887291485   T   T   T
  0.3817891744678121  0.3353287617177472  0.5930298887291485   T   T   T
 
  0.00000000E+00  0.00000000E+00  0.00000000E+00
  0.00000000E+00  0.00000000E+00  0.00000000E+00
  0.00000000E+00  0.00000000E+00  0.00000000E+00
  0.00000000E+00  0.00000000E+00  0.00000000E+00
  0.00000000E+00  0.00000000E+00  0.00000000E+00
  0.00000000E+00  0.00000000E+00  0.00000000E+00
  0.00000000E+00  0.00000000E+00  0.00000000E+00
  0.00000000E+00  0.00000000E+00  0.00000000E+00
  0.00000000E+00  0.00000000E+00  0.00000000E+00
  0.00000000E+00  0.00000000E+00  0.00000000E+00
  0.00000000E+00  0.00000000E+00  0.00000000E+00
  0.00000000E+00  0.00000000E+00  0.00000000E+00
  0.00000000E+00  0.00000000E+00  0.00000000E+00
  0.00000000E+00  0.00000000E+00  0.00000000E+00
  0.00000000E+00  0.00000000E+00  0.00000000E+00
  0.00000000E+00  0.00000000E+00  0.00000000E+00
  0.00000000E+00  0.00000000E+00  0.00000000E+00
  0.00000000E+00  0.00000000E+00  0.00000000E+00
  0.00000000E+00  0.00000000E+00  0.00000000E+00
  0.00000000E+00  0.00000000E+00  0.00000000E+00
  0.00000000E+00  0.00000000E+00  0.00000000E+00
  0.00000000E+00  0.00000000E+00  0.00000000E+00
  0.00000000E+00  0.00000000E+00  0.00000000E+00
  0.00000000E+00  0.00000000E+00  0.00000000E+00
  0.00000000E+00  0.00000000E+00  0.00000000E+00
  0.00000000E+00  0.00000000E+00  0.00000000E+00
  0.00000000E+00  0.00000000E+00  0.00000000E+00
  0.00000000E+00  0.00000000E+00  0.00000000E+00
  0.00000000E+00  0.00000000E+00  0.00000000E+00
  0.00000000E+00  0.00000000E+00  0.00000000E+00
  0.00000000E+00  0.00000000E+00  0.00000000E+00
  0.00000000E+00  0.00000000E+00  0.00000000E+00
  0.00000000E+00  0.00000000E+00  0.00000000E+00
  0.00000000E+00  0.00000000E+00  0.00000000E+00
  0.00000000E+00  0.00000000E+00  0.00000000E+00
  0.00000000E+00  0.00000000E+00  0.00000000E+00
  0.00000000E+00  0.00000000E+00  0.00000000E+00
  0.00000000E+00  0.00000000E+00  0.00000000E+00
