Au-Ru-H2O                               
   1.00000000000000     
     8.8135128021000000    0.0000000000000000    0.0000000000000000
     4.4067569092000003    7.6327256898000000    0.0000000000000000
     0.0000000000000000    0.0000000000000000   24.7442300385987473
   Au   Ru   H    O 
    35     1     2     1
Selective dynamics
Direct
  0.0000000000000000  0.0000000000000000  0.2133984335244890   F   F   F
  0.3333333429999996  0.0000000000000000  0.2133984335244890   F   F   F
  0.6666666870000029  0.0000000000000000  0.2133984335244890   F   F   F
  0.0000000000000000  0.3333333429999996  0.2133984335244890   F   F   F
  0.3333333129999971  0.3333333429999996  0.2133984335244890   F   F   F
  0.6666666870000029  0.3333333429999996  0.2133984335244890   F   F   F
  0.0000000000000000  0.6666666870000029  0.2133984335244890   F   F   F
  0.3333333429999996  0.6666666870000029  0.2133984335244890   F   F   F
  0.6666666269999979  0.6666666870000029  0.2133984335244890   F   F   F
  0.1111111190000003  0.1111111120000032  0.3103395835604914   F   F   F
  0.4444444180000033  0.1111111120000032  0.3103395835604914   F   F   F
  0.7777777909999983  0.1111111120000032  0.3103395835604914   F   F   F
  0.1111111270000009  0.4444444479999987  0.3103395835604914   F   F   F
  0.4444444780000012  0.4444444479999987  0.3103395835604914   F   F   F
  0.7777777310000005  0.4444444479999987  0.3103395835604914   F   F   F
  0.1111110900000014  0.7777777909999983  0.3103395835604914   F   F   F
  0.4444444479999987  0.7777777909999983  0.3103395835604914   F   F   F
  0.7777778510000033  0.7777777909999983  0.3103395835604914   F   F   F
  0.8888463503373174  0.2223073153253665  0.4071926277660580   F   F   F
  0.2225610744921482  0.2225610594921505  0.4057996868459810   F   F   F
  0.5548779110156872  0.2225610594921505  0.4057996868459810   F   F   F
  0.8866316819546896  0.5566841890226470  0.4066787743731979   F   F   F
  0.2225610294921481  0.5548779110156872  0.4057996868459810   F   F   F
  0.5566841890226470  0.5566841890226470  0.4066787743731979   F   F   F
  0.8888463503373174  0.8888463503373174  0.4071926277660580   F   F   F
  0.2223073453253690  0.8888463503373174  0.4071926277660580   F   F   F
  0.5566841290226634  0.8866316819546896  0.4066787743731979   F   F   F
  0.0000000000000000  0.0000000000000000  0.5049498014131473   F   F   F
  0.3332495806553908  0.0066113765016027  0.5042943021124771   F   F   F
  0.6601390728430232  0.0066113765016027  0.5042943021124771   F   F   F
  0.0066113765016027  0.3332495806553908  0.5042943021124771   F   F   F
  0.6601390728430232  0.3332495806553908  0.5042943021124771   F   F   F
  0.0066113765016027  0.6601390728430232  0.5042943021124771   F   F   F
  0.3332495806553908  0.6601390728430232  0.5042943021124771   F   F   F
  0.6666666269999979  0.6666666870000029  0.5049883024009105   F   F   F
  0.3333333129999971  0.3333333429999996  0.4947409605502102   F   F   F
  0.2423212978783766  0.3335449122523286  0.6063952178304319   T   T   T
  0.4241680770222302  0.3335034315805174  0.6063962606505129   T   T   T
  0.3333283639318623  0.3333537020780426  0.5843299932936787   T   T   T
 
  0.00000000E+00  0.00000000E+00  0.00000000E+00
  0.00000000E+00  0.00000000E+00  0.00000000E+00
  0.00000000E+00  0.00000000E+00  0.00000000E+00
  0.00000000E+00  0.00000000E+00  0.00000000E+00
  0.00000000E+00  0.00000000E+00  0.00000000E+00
  0.00000000E+00  0.00000000E+00  0.00000000E+00
  0.00000000E+00  0.00000000E+00  0.00000000E+00
  0.00000000E+00  0.00000000E+00  0.00000000E+00
  0.00000000E+00  0.00000000E+00  0.00000000E+00
  0.00000000E+00  0.00000000E+00  0.00000000E+00
  0.00000000E+00  0.00000000E+00  0.00000000E+00
  0.00000000E+00  0.00000000E+00  0.00000000E+00
  0.00000000E+00  0.00000000E+00  0.00000000E+00
  0.00000000E+00  0.00000000E+00  0.00000000E+00
  0.00000000E+00  0.00000000E+00  0.00000000E+00
  0.00000000E+00  0.00000000E+00  0.00000000E+00
  0.00000000E+00  0.00000000E+00  0.00000000E+00
  0.00000000E+00  0.00000000E+00  0.00000000E+00
  0.00000000E+00  0.00000000E+00  0.00000000E+00
  0.00000000E+00  0.00000000E+00  0.00000000E+00
  0.00000000E+00  0.00000000E+00  0.00000000E+00
  0.00000000E+00  0.00000000E+00  0.00000000E+00
  0.00000000E+00  0.00000000E+00  0.00000000E+00
  0.00000000E+00  0.00000000E+00  0.00000000E+00
  0.00000000E+00  0.00000000E+00  0.00000000E+00
  0.00000000E+00  0.00000000E+00  0.00000000E+00
  0.00000000E+00  0.00000000E+00  0.00000000E+00
  0.00000000E+00  0.00000000E+00  0.00000000E+00
  0.00000000E+00  0.00000000E+00  0.00000000E+00
  0.00000000E+00  0.00000000E+00  0.00000000E+00
  0.00000000E+00  0.00000000E+00  0.00000000E+00
  0.00000000E+00  0.00000000E+00  0.00000000E+00
  0.00000000E+00  0.00000000E+00  0.00000000E+00
  0.00000000E+00  0.00000000E+00  0.00000000E+00
  0.00000000E+00  0.00000000E+00  0.00000000E+00
  0.00000000E+00  0.00000000E+00  0.00000000E+00
  0.00000000E+00  0.00000000E+00  0.00000000E+00
  0.00000000E+00  0.00000000E+00  0.00000000E+00
  0.00000000E+00  0.00000000E+00  0.00000000E+00
