Cu-W-CO                                 
   1.00000000000000     
     7.6967864037000000    0.0000000000000000    0.0000000000000000
     3.8483927580000001    6.6656128092999998    0.0000000000000000
     0.0000000000000000    0.0000000000000000   24.2310154637728559
   Cu   W    C    O 
    35     1     1     1
Selective dynamics
Direct
  0.0000000000000000  0.0000000000000000  0.3582701304442821   F   F   F
  0.3333333429999996  0.0000000000000000  0.3582701304442821   F   F   F
  0.6666666870000029  0.0000000000000000  0.3582701304442821   F   F   F
  0.0000000000000000  0.3333333429999996  0.3582701304442821   F   F   F
  0.3333333129999971  0.3333333429999996  0.3582701304442821   F   F   F
  0.6666666870000029  0.3333333429999996  0.3582701304442821   F   F   F
  0.0000000000000000  0.6666666870000029  0.3582701304442821   F   F   F
  0.3333333730000021  0.6666666870000029  0.3582701304442821   F   F   F
  0.6666666269999979  0.6666666870000029  0.3582701304442821   F   F   F
  0.1111111190000003  0.1111111120000032  0.4447213266624317   F   F   F
  0.4444444180000033  0.1111111120000032  0.4447213266624317   F   F   F
  0.7777777909999983  0.1111111120000032  0.4447213266624317   F   F   F
  0.1111111190000003  0.4444444479999987  0.4447213266624317   F   F   F
  0.4444444780000012  0.4444444479999987  0.4447213266624317   F   F   F
  0.7777777310000005  0.4444444479999987  0.4447213266624317   F   F   F
  0.1111111120000032  0.7777777310000005  0.4447213266624317   F   F   F
  0.4444444780000012  0.7777777310000005  0.4447213266624317   F   F   F
  0.7777778510000033  0.7777777310000005  0.4447213266624317   F   F   F
  0.8887236695153007  0.2225526769693928  0.5312234068948527   F   F   F
  0.2211477967871218  0.2211477817871170  0.5301296912110374   F   F   F
  0.5577044664257400  0.2211477817871170  0.5301296912110374   F   F   F
  0.8879869860471317  0.5560064769764281  0.5316648089773821   F   F   F
  0.2211477667871264  0.5577044064257421  0.5301296912110374   F   F   F
  0.5560065369764331  0.5560064769764281  0.5316648089773821   F   F   F
  0.8887236695153007  0.8887236695153007  0.5312234068948527   F   F   F
  0.2225526919693834  0.8887236695153007  0.5312234068948527   F   F   F
  0.5560064769764281  0.8879869860471317  0.5316648089773821   F   F   F
  0.0000000000000000  0.0000000000000000  0.6178914966658198   F   F   F
  0.3329862498668916  0.9995505413606693  0.6193767551893004   F   F   F
  0.6674632387724415  0.9995505413606693  0.6193767551893004   F   F   F
  0.9995505413606693  0.3329862498668916  0.6193767551893004   F   F   F
  0.6674632387724415  0.3329862498668916  0.6193767551893004   F   F   F
  0.9995505413606693  0.6674632387724415  0.6193767551893004   F   F   F
  0.3329862798668870  0.6674632387724415  0.6193767551893004   F   F   F
  0.6666666269999979  0.6666666870000029  0.6182516351901910   F   F   F
  0.3333333129999971  0.3333333429999996  0.6149871933703892   F   F   F
  0.3333333129999971  0.3333333429999996  0.6974900838860750   T   T   T
  0.3333333129999971  0.3333333429999996  0.7458436141075343   T   T   T
 
  0.00000000E+00  0.00000000E+00  0.00000000E+00
  0.00000000E+00  0.00000000E+00  0.00000000E+00
  0.00000000E+00  0.00000000E+00  0.00000000E+00
  0.00000000E+00  0.00000000E+00  0.00000000E+00
  0.00000000E+00  0.00000000E+00  0.00000000E+00
  0.00000000E+00  0.00000000E+00  0.00000000E+00
  0.00000000E+00  0.00000000E+00  0.00000000E+00
  0.00000000E+00  0.00000000E+00  0.00000000E+00
  0.00000000E+00  0.00000000E+00  0.00000000E+00
  0.00000000E+00  0.00000000E+00  0.00000000E+00
  0.00000000E+00  0.00000000E+00  0.00000000E+00
  0.00000000E+00  0.00000000E+00  0.00000000E+00
  0.00000000E+00  0.00000000E+00  0.00000000E+00
  0.00000000E+00  0.00000000E+00  0.00000000E+00
  0.00000000E+00  0.00000000E+00  0.00000000E+00
  0.00000000E+00  0.00000000E+00  0.00000000E+00
  0.00000000E+00  0.00000000E+00  0.00000000E+00
  0.00000000E+00  0.00000000E+00  0.00000000E+00
  0.00000000E+00  0.00000000E+00  0.00000000E+00
  0.00000000E+00  0.00000000E+00  0.00000000E+00
  0.00000000E+00  0.00000000E+00  0.00000000E+00
  0.00000000E+00  0.00000000E+00  0.00000000E+00
  0.00000000E+00  0.00000000E+00  0.00000000E+00
  0.00000000E+00  0.00000000E+00  0.00000000E+00
  0.00000000E+00  0.00000000E+00  0.00000000E+00
  0.00000000E+00  0.00000000E+00  0.00000000E+00
  0.00000000E+00  0.00000000E+00  0.00000000E+00
  0.00000000E+00  0.00000000E+00  0.00000000E+00
  0.00000000E+00  0.00000000E+00  0.00000000E+00
  0.00000000E+00  0.00000000E+00  0.00000000E+00
  0.00000000E+00  0.00000000E+00  0.00000000E+00
  0.00000000E+00  0.00000000E+00  0.00000000E+00
  0.00000000E+00  0.00000000E+00  0.00000000E+00
  0.00000000E+00  0.00000000E+00  0.00000000E+00
  0.00000000E+00  0.00000000E+00  0.00000000E+00
  0.00000000E+00  0.00000000E+00  0.00000000E+00
  0.00000000E+00  0.00000000E+00  0.00000000E+00
  0.00000000E+00  0.00000000E+00  0.00000000E+00
