Ag-Pd-OOH                               
   1.00000000000000     
     8.7913665770999998    0.0000000000000000    0.0000000000000000
     4.3956832885999999    7.6135467898000000    0.0000000000000000
     0.0000000000000000    0.0000000000000000   25.9078406019906637
   Ag   Pd   O    H 
    35     1     2     1
Selective dynamics
Direct
  0.0000000000000000  0.0000000000000000  0.2038837671931404   F   F   F
  0.3333333129999971  0.0000000000000000  0.2038837671931404   F   F   F
  0.6666666269999979  0.0000000000000000  0.2038837671931404   F   F   F
  0.0000000000000000  0.3333333429999996  0.2038837671931404   F   F   F
  0.3333333129999971  0.3333333429999996  0.2038837671931404   F   F   F
  0.6666666870000029  0.3333333429999996  0.2038837671931404   F   F   F
  0.0000000000000000  0.6666666870000029  0.2038837671931404   F   F   F
  0.3333333129999971  0.6666666870000029  0.2038837671931404   F   F   F
  0.6666666269999979  0.6666666870000029  0.2038837671931404   F   F   F
  0.1111111040000026  0.1111111120000032  0.2962383266144002   F   F   F
  0.4444444479999987  0.1111111120000032  0.2962383266144002   F   F   F
  0.7777777909999983  0.1111111120000032  0.2962383266144002   F   F   F
  0.1111110969999984  0.4444444479999987  0.2962383266144002   F   F   F
  0.4444444180000033  0.4444444479999987  0.2962383266144002   F   F   F
  0.7777777909999983  0.4444444479999987  0.2962383266144002   F   F   F
  0.1111111040000026  0.7777777909999983  0.2962383266144002   F   F   F
  0.4444444479999987  0.7777777909999983  0.2962383266144002   F   F   F
  0.7777777909999983  0.7777777909999983  0.2962383266144002   F   F   F
  0.8887301377009393  0.2225397405981298  0.3880053925072176   F   F   F
  0.2220376286556700  0.2220376436556677  0.3875273085525990   F   F   F
  0.5559246826886479  0.2220376436556677  0.3875273085525990   F   F   F
  0.8888542602374372  0.5555728998812697  0.3878011444990221   F   F   F
  0.2220376436556677  0.5559247426886529  0.3875273085525990   F   F   F
  0.5555728998812697  0.5555728998812697  0.3878011444990221   F   F   F
  0.8887301377009393  0.8887301377009393  0.3880053925072176   F   F   F
  0.2225397105981202  0.8887301377009393  0.3880053925072176   F   F   F
  0.5555728398812718  0.8888542602374372  0.3878011444990221   F   F   F
  0.0000000000000000  0.0000000000000000  0.4794892200226002   F   F   F
  0.3334471993126087  0.0025011092916785  0.4795634273592171   F   F   F
  0.6640516313957079  0.0025011092916785  0.4795634273592171   F   F   F
  0.0025011092916785  0.3334472293126112  0.4795634273592171   F   F   F
  0.6640516913957129  0.3334472293126112  0.4795634273592171   F   F   F
  0.0025011092916785  0.6640516913957129  0.4795634273592171   F   F   F
  0.3334471993126087  0.6640516913957129  0.4795634273592171   F   F   F
  0.6666666269999979  0.6666666870000029  0.4793169629150782   F   F   F
  0.3333333129999971  0.3333333429999996  0.4742319245297111   F   F   F
  0.4166293508370273  0.4282746208721022  0.5387046686562940   T   T   T
  0.3530585980564567  0.4231836700450771  0.5916961424163460   T   T   T
  0.4610011196515416  0.3272586230870544  0.6065154383903675   T   T   T
 
  0.00000000E+00  0.00000000E+00  0.00000000E+00
  0.00000000E+00  0.00000000E+00  0.00000000E+00
  0.00000000E+00  0.00000000E+00  0.00000000E+00
  0.00000000E+00  0.00000000E+00  0.00000000E+00
  0.00000000E+00  0.00000000E+00  0.00000000E+00
  0.00000000E+00  0.00000000E+00  0.00000000E+00
  0.00000000E+00  0.00000000E+00  0.00000000E+00
  0.00000000E+00  0.00000000E+00  0.00000000E+00
  0.00000000E+00  0.00000000E+00  0.00000000E+00
  0.00000000E+00  0.00000000E+00  0.00000000E+00
  0.00000000E+00  0.00000000E+00  0.00000000E+00
  0.00000000E+00  0.00000000E+00  0.00000000E+00
  0.00000000E+00  0.00000000E+00  0.00000000E+00
  0.00000000E+00  0.00000000E+00  0.00000000E+00
  0.00000000E+00  0.00000000E+00  0.00000000E+00
  0.00000000E+00  0.00000000E+00  0.00000000E+00
  0.00000000E+00  0.00000000E+00  0.00000000E+00
  0.00000000E+00  0.00000000E+00  0.00000000E+00
  0.00000000E+00  0.00000000E+00  0.00000000E+00
  0.00000000E+00  0.00000000E+00  0.00000000E+00
  0.00000000E+00  0.00000000E+00  0.00000000E+00
  0.00000000E+00  0.00000000E+00  0.00000000E+00
  0.00000000E+00  0.00000000E+00  0.00000000E+00
  0.00000000E+00  0.00000000E+00  0.00000000E+00
  0.00000000E+00  0.00000000E+00  0.00000000E+00
  0.00000000E+00  0.00000000E+00  0.00000000E+00
  0.00000000E+00  0.00000000E+00  0.00000000E+00
  0.00000000E+00  0.00000000E+00  0.00000000E+00
  0.00000000E+00  0.00000000E+00  0.00000000E+00
  0.00000000E+00  0.00000000E+00  0.00000000E+00
  0.00000000E+00  0.00000000E+00  0.00000000E+00
  0.00000000E+00  0.00000000E+00  0.00000000E+00
  0.00000000E+00  0.00000000E+00  0.00000000E+00
  0.00000000E+00  0.00000000E+00  0.00000000E+00
  0.00000000E+00  0.00000000E+00  0.00000000E+00
  0.00000000E+00  0.00000000E+00  0.00000000E+00
  0.00000000E+00  0.00000000E+00  0.00000000E+00
  0.00000000E+00  0.00000000E+00  0.00000000E+00
  0.00000000E+00  0.00000000E+00  0.00000000E+00
