Au-Cr-H2O                               
   1.00000000000000     
     8.8135128021000000    0.0000000000000000    0.0000000000000000
     4.4067569092000003    7.6327256898000000    0.0000000000000000
     0.0000000000000000    0.0000000000000000   24.7442300385987473
   Au   Cr   H    O 
    35     1     2     1
Selective dynamics
Direct
  0.0000000000000000  0.0000000000000000  0.2133984335244890   F   F   F
  0.3333333429999996  0.0000000000000000  0.2133984335244890   F   F   F
  0.6666666870000029  0.0000000000000000  0.2133984335244890   F   F   F
  0.0000000000000000  0.3333333429999996  0.2133984335244890   F   F   F
  0.3333333129999971  0.3333333429999996  0.2133984335244890   F   F   F
  0.6666666870000029  0.3333333429999996  0.2133984335244890   F   F   F
  0.0000000000000000  0.6666666870000029  0.2133984335244890   F   F   F
  0.3333333429999996  0.6666666870000029  0.2133984335244890   F   F   F
  0.6666666269999979  0.6666666870000029  0.2133984335244890   F   F   F
  0.1111111190000003  0.1111111120000032  0.3103395835604914   F   F   F
  0.4444444180000033  0.1111111120000032  0.3103395835604914   F   F   F
  0.7777777909999983  0.1111111120000032  0.3103395835604914   F   F   F
  0.1111111270000009  0.4444444479999987  0.3103395835604914   F   F   F
  0.4444444780000012  0.4444444479999987  0.3103395835604914   F   F   F
  0.7777777310000005  0.4444444479999987  0.3103395835604914   F   F   F
  0.1111110900000014  0.7777777909999983  0.3103395835604914   F   F   F
  0.4444444479999987  0.7777777909999983  0.3103395835604914   F   F   F
  0.7777778510000033  0.7777777909999983  0.3103395835604914   F   F   F
  0.8889120789145935  0.2221758581708215  0.4071662038218022   F   F   F
  0.2232987611762383  0.2232987461762406  0.4061030692094576   F   F   F
  0.5534025376475213  0.2232987461762406  0.4061030692094576   F   F   F
  0.8862923946864569  0.5568538326567634  0.4064730247843400   F   F   F
  0.2232987161762381  0.5534025376475213  0.4061030692094576   F   F   F
  0.5568538326567634  0.5568538326567634  0.4064730247843400   F   F   F
  0.8889120789145935  0.8889120789145935  0.4071662038218022   F   F   F
  0.2221758881708169  0.8889120789145935  0.4071662038218022   F   F   F
  0.5568537726567726  0.8862923946864569  0.4064730247843400   F   F   F
  0.0000000000000000  0.0000000000000000  0.5046824073815515   F   F   F
  0.3336527269299623  0.0109520290278127  0.5044216193013611   F   F   F
  0.6553952740422488  0.0109520290278127  0.5044216193013611   F   F   F
  0.0109520290278127  0.3336527269299623  0.5044216193013611   F   F   F
  0.6553952740422488  0.3336527269299623  0.5044216193013611   F   F   F
  0.0109520290278127  0.6553952740422488  0.5044216193013611   F   F   F
  0.3336527269299623  0.6553952740422488  0.5044216193013611   F   F   F
  0.6666666269999979  0.6666666870000029  0.5049987316290014   F   F   F
  0.3333333129999971  0.3333333429999996  0.4920809442728427   F   F   F
  0.2787610680087624  0.2637595834385351  0.5874318864324692   T   T   T
  0.4578975549646955  0.2624579245911676  0.5874508412899075   T   T   T
  0.3332780272468057  0.3339827766120251  0.5781930791864127   T   T   T
 
  0.00000000E+00  0.00000000E+00  0.00000000E+00
  0.00000000E+00  0.00000000E+00  0.00000000E+00
  0.00000000E+00  0.00000000E+00  0.00000000E+00
  0.00000000E+00  0.00000000E+00  0.00000000E+00
  0.00000000E+00  0.00000000E+00  0.00000000E+00
  0.00000000E+00  0.00000000E+00  0.00000000E+00
  0.00000000E+00  0.00000000E+00  0.00000000E+00
  0.00000000E+00  0.00000000E+00  0.00000000E+00
  0.00000000E+00  0.00000000E+00  0.00000000E+00
  0.00000000E+00  0.00000000E+00  0.00000000E+00
  0.00000000E+00  0.00000000E+00  0.00000000E+00
  0.00000000E+00  0.00000000E+00  0.00000000E+00
  0.00000000E+00  0.00000000E+00  0.00000000E+00
  0.00000000E+00  0.00000000E+00  0.00000000E+00
  0.00000000E+00  0.00000000E+00  0.00000000E+00
  0.00000000E+00  0.00000000E+00  0.00000000E+00
  0.00000000E+00  0.00000000E+00  0.00000000E+00
  0.00000000E+00  0.00000000E+00  0.00000000E+00
  0.00000000E+00  0.00000000E+00  0.00000000E+00
  0.00000000E+00  0.00000000E+00  0.00000000E+00
  0.00000000E+00  0.00000000E+00  0.00000000E+00
  0.00000000E+00  0.00000000E+00  0.00000000E+00
  0.00000000E+00  0.00000000E+00  0.00000000E+00
  0.00000000E+00  0.00000000E+00  0.00000000E+00
  0.00000000E+00  0.00000000E+00  0.00000000E+00
  0.00000000E+00  0.00000000E+00  0.00000000E+00
  0.00000000E+00  0.00000000E+00  0.00000000E+00
  0.00000000E+00  0.00000000E+00  0.00000000E+00
  0.00000000E+00  0.00000000E+00  0.00000000E+00
  0.00000000E+00  0.00000000E+00  0.00000000E+00
  0.00000000E+00  0.00000000E+00  0.00000000E+00
  0.00000000E+00  0.00000000E+00  0.00000000E+00
  0.00000000E+00  0.00000000E+00  0.00000000E+00
  0.00000000E+00  0.00000000E+00  0.00000000E+00
  0.00000000E+00  0.00000000E+00  0.00000000E+00
  0.00000000E+00  0.00000000E+00  0.00000000E+00
  0.00000000E+00  0.00000000E+00  0.00000000E+00
  0.00000000E+00  0.00000000E+00  0.00000000E+00
  0.00000000E+00  0.00000000E+00  0.00000000E+00
