Au-Ir-OOH                               
   1.00000000000000     
     8.8135128021000000    0.0000000000000000    0.0000000000000000
     4.4067569092000003    7.6327256898000000    0.0000000000000000
     0.0000000000000000    0.0000000000000000   25.9228484302073312
   Au   Ir   O    H 
    35     1     2     1
Selective dynamics
Direct
  0.0000000000000000  0.0000000000000000  0.2036959766679587   F   F   F
  0.3333333429999996  0.0000000000000000  0.2036959766679587   F   F   F
  0.6666666870000029  0.0000000000000000  0.2036959766679587   F   F   F
  0.0000000000000000  0.3333333429999996  0.2036959766679587   F   F   F
  0.3333333129999971  0.3333333429999996  0.2036959766679587   F   F   F
  0.6666666870000029  0.3333333429999996  0.2036959766679587   F   F   F
  0.0000000000000000  0.6666666870000029  0.2036959766679587   F   F   F
  0.3333333429999996  0.6666666870000029  0.2036959766679587   F   F   F
  0.6666666269999979  0.6666666870000029  0.2036959766679587   F   F   F
  0.1111111190000003  0.1111111120000032  0.2962295623638127   F   F   F
  0.4444444180000033  0.1111111120000032  0.2962295623638127   F   F   F
  0.7777777909999983  0.1111111120000032  0.2962295623638127   F   F   F
  0.1111111270000009  0.4444444479999987  0.2962295623638127   F   F   F
  0.4444444780000012  0.4444444479999987  0.2962295623638127   F   F   F
  0.7777777310000005  0.4444444479999987  0.2962295623638127   F   F   F
  0.1111110900000014  0.7777777909999983  0.2962295623638127   F   F   F
  0.4444444479999987  0.7777777909999983  0.2962295623638127   F   F   F
  0.7777778510000033  0.7777777909999983  0.2962295623638127   F   F   F
  0.8886126423151381  0.2227747313697321  0.3888957223549667   F   F   F
  0.2216648805198602  0.2216648655198625  0.3872327793133223   F   F   F
  0.5566702989602632  0.2216648655198625  0.3872327793133223   F   F   F
  0.8866935878123670  0.5566532360938226  0.3881225391912082   F   F   F
  0.2216648355198600  0.5566702989602632  0.3872327793133223   F   F   F
  0.5566532360938226  0.5566532360938226  0.3881225391912082   F   F   F
  0.8886126423151381  0.8886126423151381  0.3888957223549667   F   F   F
  0.2227747613697275  0.8886126423151381  0.3888957223549667   F   F   F
  0.5566531760938176  0.8866935878123670  0.3881225391912082   F   F   F
  0.0000000000000000  0.0000000000000000  0.4820530668733767   F   F   F
  0.3333141867134728  0.0052536554553768  0.4815474701723588   F   F   F
  0.6614321878311600  0.0052536554553768  0.4815474701723588   F   F   F
  0.0052536554553768  0.3333141867134728  0.4815474701723588   F   F   F
  0.6614321878311600  0.3333141867134728  0.4815474701723588   F   F   F
  0.0052536554553768  0.6614321878311600  0.4815474701723588   F   F   F
  0.3333141867134728  0.6614321878311600  0.4815474701723588   F   F   F
  0.6666666269999979  0.6666666870000029  0.4818804722454573   F   F   F
  0.3333333129999971  0.3333333429999996  0.4720343436885486   F   F   F
  0.3217181655161951  0.3403489817620908  0.5476446426691197   T   T   T
  0.4794453553037741  0.2074686890007555  0.5748413566622972   T   T   T
  0.5483797913680917  0.2675875142535133  0.5767768288638990   T   T   T
 
  0.00000000E+00  0.00000000E+00  0.00000000E+00
  0.00000000E+00  0.00000000E+00  0.00000000E+00
  0.00000000E+00  0.00000000E+00  0.00000000E+00
  0.00000000E+00  0.00000000E+00  0.00000000E+00
  0.00000000E+00  0.00000000E+00  0.00000000E+00
  0.00000000E+00  0.00000000E+00  0.00000000E+00
  0.00000000E+00  0.00000000E+00  0.00000000E+00
  0.00000000E+00  0.00000000E+00  0.00000000E+00
  0.00000000E+00  0.00000000E+00  0.00000000E+00
  0.00000000E+00  0.00000000E+00  0.00000000E+00
  0.00000000E+00  0.00000000E+00  0.00000000E+00
  0.00000000E+00  0.00000000E+00  0.00000000E+00
  0.00000000E+00  0.00000000E+00  0.00000000E+00
  0.00000000E+00  0.00000000E+00  0.00000000E+00
  0.00000000E+00  0.00000000E+00  0.00000000E+00
  0.00000000E+00  0.00000000E+00  0.00000000E+00
  0.00000000E+00  0.00000000E+00  0.00000000E+00
  0.00000000E+00  0.00000000E+00  0.00000000E+00
  0.00000000E+00  0.00000000E+00  0.00000000E+00
  0.00000000E+00  0.00000000E+00  0.00000000E+00
  0.00000000E+00  0.00000000E+00  0.00000000E+00
  0.00000000E+00  0.00000000E+00  0.00000000E+00
  0.00000000E+00  0.00000000E+00  0.00000000E+00
  0.00000000E+00  0.00000000E+00  0.00000000E+00
  0.00000000E+00  0.00000000E+00  0.00000000E+00
  0.00000000E+00  0.00000000E+00  0.00000000E+00
  0.00000000E+00  0.00000000E+00  0.00000000E+00
  0.00000000E+00  0.00000000E+00  0.00000000E+00
  0.00000000E+00  0.00000000E+00  0.00000000E+00
  0.00000000E+00  0.00000000E+00  0.00000000E+00
  0.00000000E+00  0.00000000E+00  0.00000000E+00
  0.00000000E+00  0.00000000E+00  0.00000000E+00
  0.00000000E+00  0.00000000E+00  0.00000000E+00
  0.00000000E+00  0.00000000E+00  0.00000000E+00
  0.00000000E+00  0.00000000E+00  0.00000000E+00
  0.00000000E+00  0.00000000E+00  0.00000000E+00
  0.00000000E+00  0.00000000E+00  0.00000000E+00
  0.00000000E+00  0.00000000E+00  0.00000000E+00
  0.00000000E+00  0.00000000E+00  0.00000000E+00
