Au-Hf-N2                                
   1.00000000000000     
     8.8135128021000000    0.0000000000000000    0.0000000000000000
     4.4067569092000003    7.6327256898000000    0.0000000000000000
     0.0000000000000000    0.0000000000000000   25.4833791893219725
   Au   Hf   N 
    35     1     2
Selective dynamics
Direct
  0.0000000000000000  0.0000000000000000  0.2072087806635707   F   F   F
  0.3333333429999996  0.0000000000000000  0.2072087806635707   F   F   F
  0.6666666870000029  0.0000000000000000  0.2072087806635707   F   F   F
  0.0000000000000000  0.3333333429999996  0.2072087806635707   F   F   F
  0.3333333129999971  0.3333333429999996  0.2072087806635707   F   F   F
  0.6666666870000029  0.3333333429999996  0.2072087806635707   F   F   F
  0.0000000000000000  0.6666666870000029  0.2072087806635707   F   F   F
  0.3333333429999996  0.6666666870000029  0.2072087806635707   F   F   F
  0.6666666269999979  0.6666666870000029  0.2072087806635707   F   F   F
  0.1111111190000003  0.1111111120000032  0.3013381384255993   F   F   F
  0.4444444180000033  0.1111111120000032  0.3013381384255993   F   F   F
  0.7777777909999983  0.1111111120000032  0.3013381384255993   F   F   F
  0.1111111270000009  0.4444444479999987  0.3013381384255993   F   F   F
  0.4444444780000012  0.4444444479999987  0.3013381384255993   F   F   F
  0.7777777310000005  0.4444444479999987  0.3013381384255993   F   F   F
  0.1111110900000014  0.7777777909999983  0.3013381384255993   F   F   F
  0.4444444479999987  0.7777777909999983  0.3013381384255993   F   F   F
  0.7777778510000033  0.7777777909999983  0.3013381384255993   F   F   F
  0.8888755800425869  0.2222488559148204  0.3953434256841888   F   F   F
  0.2226414042061009  0.2226413892061032  0.3948170402384292   F   F   F
  0.5547172515877890  0.2226413892061032  0.3948170402384292   F   F   F
  0.8873408608288571  0.5563295995855668  0.3951544896191095   F   F   F
  0.2226413592061007  0.5547172515877890  0.3948170402384292   F   F   F
  0.5563295995855668  0.5563295995855668  0.3951544896191095   F   F   F
  0.8888755800425869  0.8888755800425869  0.3953434256841888   F   F   F
  0.2222488859148228  0.8888755800425869  0.3953434256841888   F   F   F
  0.5563295395855690  0.8873408608288571  0.3951544896191095   F   F   F
  0.0000000000000000  0.0000000000000000  0.4903870884784283   F   F   F
  0.3338754718482377  0.0078634981941406  0.4928249360852419   F   F   F
  0.6582610599576313  0.0078634981941406  0.4928249360852419   F   F   F
  0.0078634981941406  0.3338754718482377  0.4928249360852419   F   F   F
  0.6582610599576313  0.3338754718482377  0.4928249360852419   F   F   F
  0.0078634981941406  0.6582610599576313  0.4928249360852419   F   F   F
  0.3338754718482377  0.6582610599576313  0.4928249360852419   F   F   F
  0.6666666269999979  0.6666666870000029  0.4908262525859968   F   F   F
  0.3333333129999971  0.3333333429999996  0.4831206980742806   F   F   F
  0.2689569672418155  0.3357130562207815  0.6715608740060875   T   T   T
  0.3953299455374041  0.3357130562207815  0.6715608740060875   T   T   T
 
  0.00000000E+00  0.00000000E+00  0.00000000E+00
  0.00000000E+00  0.00000000E+00  0.00000000E+00
  0.00000000E+00  0.00000000E+00  0.00000000E+00
  0.00000000E+00  0.00000000E+00  0.00000000E+00
  0.00000000E+00  0.00000000E+00  0.00000000E+00
  0.00000000E+00  0.00000000E+00  0.00000000E+00
  0.00000000E+00  0.00000000E+00  0.00000000E+00
  0.00000000E+00  0.00000000E+00  0.00000000E+00
  0.00000000E+00  0.00000000E+00  0.00000000E+00
  0.00000000E+00  0.00000000E+00  0.00000000E+00
  0.00000000E+00  0.00000000E+00  0.00000000E+00
  0.00000000E+00  0.00000000E+00  0.00000000E+00
  0.00000000E+00  0.00000000E+00  0.00000000E+00
  0.00000000E+00  0.00000000E+00  0.00000000E+00
  0.00000000E+00  0.00000000E+00  0.00000000E+00
  0.00000000E+00  0.00000000E+00  0.00000000E+00
  0.00000000E+00  0.00000000E+00  0.00000000E+00
  0.00000000E+00  0.00000000E+00  0.00000000E+00
  0.00000000E+00  0.00000000E+00  0.00000000E+00
  0.00000000E+00  0.00000000E+00  0.00000000E+00
  0.00000000E+00  0.00000000E+00  0.00000000E+00
  0.00000000E+00  0.00000000E+00  0.00000000E+00
  0.00000000E+00  0.00000000E+00  0.00000000E+00
  0.00000000E+00  0.00000000E+00  0.00000000E+00
  0.00000000E+00  0.00000000E+00  0.00000000E+00
  0.00000000E+00  0.00000000E+00  0.00000000E+00
  0.00000000E+00  0.00000000E+00  0.00000000E+00
  0.00000000E+00  0.00000000E+00  0.00000000E+00
  0.00000000E+00  0.00000000E+00  0.00000000E+00
  0.00000000E+00  0.00000000E+00  0.00000000E+00
  0.00000000E+00  0.00000000E+00  0.00000000E+00
  0.00000000E+00  0.00000000E+00  0.00000000E+00
  0.00000000E+00  0.00000000E+00  0.00000000E+00
  0.00000000E+00  0.00000000E+00  0.00000000E+00
  0.00000000E+00  0.00000000E+00  0.00000000E+00
  0.00000000E+00  0.00000000E+00  0.00000000E+00
  0.00000000E+00  0.00000000E+00  0.00000000E+00
  0.00000000E+00  0.00000000E+00  0.00000000E+00
