Ag-Rh-OH                                
   1.00000000000000     
     8.7913665770999998    0.0000000000000000    0.0000000000000000
     4.3956832885999999    7.6135467898000000    0.0000000000000000
     0.0000000000000000    0.0000000000000000   25.2479873362480873
   Ag   Rh   O    H 
    35     1     1     1
Selective dynamics
Direct
  0.0000000000000000  0.0000000000000000  0.2092122461654498   F   F   F
  0.3333333129999971  0.0000000000000000  0.2092122461654498   F   F   F
  0.6666666269999979  0.0000000000000000  0.2092122461654498   F   F   F
  0.0000000000000000  0.3333333429999996  0.2092122461654498   F   F   F
  0.3333333129999971  0.3333333429999996  0.2092122461654498   F   F   F
  0.6666666870000029  0.3333333429999996  0.2092122461654498   F   F   F
  0.0000000000000000  0.6666666870000029  0.2092122461654498   F   F   F
  0.3333333129999971  0.6666666870000029  0.2092122461654498   F   F   F
  0.6666666269999979  0.6666666870000029  0.2092122461654498   F   F   F
  0.1111111040000026  0.1111111120000032  0.3039804814504024   F   F   F
  0.4444444479999987  0.1111111120000032  0.3039804814504024   F   F   F
  0.7777777909999983  0.1111111120000032  0.3039804814504024   F   F   F
  0.1111110969999984  0.4444444479999987  0.3039804814504024   F   F   F
  0.4444444180000033  0.4444444479999987  0.3039804814504024   F   F   F
  0.7777777909999983  0.4444444479999987  0.3039804814504024   F   F   F
  0.1111111040000026  0.7777777909999983  0.3039804814504024   F   F   F
  0.4444444479999987  0.7777777909999983  0.3039804814504024   F   F   F
  0.7777777909999983  0.7777777909999983  0.3039804814504024   F   F   F
  0.8886096635774408  0.2227806888451127  0.3984673637486722   F   F   F
  0.2224307260220826  0.2224307410220803  0.3973545690325935   F   F   F
  0.5551384879558370  0.2224307410220803  0.3973545690325935   F   F   F
  0.8887443343543424  0.5556278628228171  0.3981321970637808   F   F   F
  0.2224307410220803  0.5551385479558419  0.3973545690325935   F   F   F
  0.5556278628228171  0.5556278628228171  0.3981321970637808   F   F   F
  0.8886096635774408  0.8886096635774408  0.3984673637486722   F   F   F
  0.2227806588451102  0.8886096635774408  0.3984673637486722   F   F   F
  0.5556278028228334  0.8887443343543424  0.3981321970637808   F   F   F
  0.0000000000000000  0.0000000000000000  0.4919958323485432   F   F   F
  0.3331444217542412  0.0050932852284902  0.4922580661278388   F   F   F
  0.6617622330172566  0.0050932852284902  0.4922580661278388   F   F   F
  0.0050932852284902  0.3331444517542366  0.4922580661278388   F   F   F
  0.6617622930172686  0.3331444517542366  0.4922580661278388   F   F   F
  0.0050932852284902  0.6617622930172686  0.4922580661278388   F   F   F
  0.3331444217542412  0.6617622930172686  0.4922580661278388   F   F   F
  0.6666666269999979  0.6666666870000029  0.4916482455725415   F   F   F
  0.3333333129999971  0.3333333429999996  0.4846664201492672   F   F   F
  0.3333333129999971  0.3333333429999996  0.5625684489518821   T   T   T
  0.3333333129999971  0.3333333429999996  0.6008166143870868   T   T   T
 
  0.00000000E+00  0.00000000E+00  0.00000000E+00
  0.00000000E+00  0.00000000E+00  0.00000000E+00
  0.00000000E+00  0.00000000E+00  0.00000000E+00
  0.00000000E+00  0.00000000E+00  0.00000000E+00
  0.00000000E+00  0.00000000E+00  0.00000000E+00
  0.00000000E+00  0.00000000E+00  0.00000000E+00
  0.00000000E+00  0.00000000E+00  0.00000000E+00
  0.00000000E+00  0.00000000E+00  0.00000000E+00
  0.00000000E+00  0.00000000E+00  0.00000000E+00
  0.00000000E+00  0.00000000E+00  0.00000000E+00
  0.00000000E+00  0.00000000E+00  0.00000000E+00
  0.00000000E+00  0.00000000E+00  0.00000000E+00
  0.00000000E+00  0.00000000E+00  0.00000000E+00
  0.00000000E+00  0.00000000E+00  0.00000000E+00
  0.00000000E+00  0.00000000E+00  0.00000000E+00
  0.00000000E+00  0.00000000E+00  0.00000000E+00
  0.00000000E+00  0.00000000E+00  0.00000000E+00
  0.00000000E+00  0.00000000E+00  0.00000000E+00
  0.00000000E+00  0.00000000E+00  0.00000000E+00
  0.00000000E+00  0.00000000E+00  0.00000000E+00
  0.00000000E+00  0.00000000E+00  0.00000000E+00
  0.00000000E+00  0.00000000E+00  0.00000000E+00
  0.00000000E+00  0.00000000E+00  0.00000000E+00
  0.00000000E+00  0.00000000E+00  0.00000000E+00
  0.00000000E+00  0.00000000E+00  0.00000000E+00
  0.00000000E+00  0.00000000E+00  0.00000000E+00
  0.00000000E+00  0.00000000E+00  0.00000000E+00
  0.00000000E+00  0.00000000E+00  0.00000000E+00
  0.00000000E+00  0.00000000E+00  0.00000000E+00
  0.00000000E+00  0.00000000E+00  0.00000000E+00
  0.00000000E+00  0.00000000E+00  0.00000000E+00
  0.00000000E+00  0.00000000E+00  0.00000000E+00
  0.00000000E+00  0.00000000E+00  0.00000000E+00
  0.00000000E+00  0.00000000E+00  0.00000000E+00
  0.00000000E+00  0.00000000E+00  0.00000000E+00
  0.00000000E+00  0.00000000E+00  0.00000000E+00
  0.00000000E+00  0.00000000E+00  0.00000000E+00
  0.00000000E+00  0.00000000E+00  0.00000000E+00
