Cu-Ni-OOH                               
   1.00000000000000     
     7.6967864037000000    0.0000000000000000    0.0000000000000000
     3.8483927580000001    6.6656128092999998    0.0000000000000000
     0.0000000000000000    0.0000000000000000   25.3788956433894519
   Cu   Ni   O    H 
    35     1     2     1
Selective dynamics
Direct
  0.0000000000000000  0.0000000000000000  0.2116545856136796   F   F   F
  0.3333333429999996  0.0000000000000000  0.2116545856136796   F   F   F
  0.6666666870000029  0.0000000000000000  0.2116545856136796   F   F   F
  0.0000000000000000  0.3333333429999996  0.2116545856136796   F   F   F
  0.3333333129999971  0.3333333429999996  0.2116545856136796   F   F   F
  0.6666666870000029  0.3333333429999996  0.2116545856136796   F   F   F
  0.0000000000000000  0.6666666870000029  0.2116545856136796   F   F   F
  0.3333333730000021  0.6666666870000029  0.2116545856136796   F   F   F
  0.6666666269999979  0.6666666870000029  0.2116545856136796   F   F   F
  0.1111111190000003  0.1111111120000032  0.2941956189927097   F   F   F
  0.4444444180000033  0.1111111120000032  0.2941956189927097   F   F   F
  0.7777777909999983  0.1111111120000032  0.2941956189927097   F   F   F
  0.1111111190000003  0.4444444479999987  0.2941956189927097   F   F   F
  0.4444444780000012  0.4444444479999987  0.2941956189927097   F   F   F
  0.7777777310000005  0.4444444479999987  0.2941956189927097   F   F   F
  0.1111111120000032  0.7777777310000005  0.2941956189927097   F   F   F
  0.4444444780000012  0.7777777310000005  0.2941956189927097   F   F   F
  0.7777778510000033  0.7777777310000005  0.2941956189927097   F   F   F
  0.8887176364835483  0.2225647430328976  0.3763249634999397   F   F   F
  0.2222056665377607  0.2222056515377631  0.3760111499213465   F   F   F
  0.5555887269244622  0.2222056515377631  0.3760111499213465   F   F   F
  0.8888487632707296  0.5555755883646327  0.3762217432059671   F   F   F
  0.2222056365377583  0.5555886669244714  0.3760111499213465   F   F   F
  0.5555756483646306  0.5555755883646327  0.3762217432059671   F   F   F
  0.8887176364835483  0.8887176364835483  0.3763249634999397   F   F   F
  0.2225647580329024  0.8887176364835483  0.3763249634999397   F   F   F
  0.5555755883646327  0.8888487632707296  0.3762217432059671   F   F   F
  0.0000000000000000  0.0000000000000000  0.4576737221845804   F   F   F
  0.3332070554826174  0.0021699200066578  0.4578625592275216   F   F   F
  0.6646230545107201  0.0021699200066578  0.4578625592275216   F   F   F
  0.0021699200066578  0.3332070554826174  0.4578625592275216   F   F   F
  0.6646230545107201  0.3332070554826174  0.4578625592275216   F   F   F
  0.0021699200066578  0.6646230545107201  0.4578625592275216   F   F   F
  0.3332070854826199  0.6646230545107201  0.4578625592275216   F   F   F
  0.6666666269999979  0.6666666870000029  0.4576124686663192   F   F   F
  0.3333333129999971  0.3333333429999996  0.4545195674246401   F   F   F
  0.4269118149814020  0.4321730663941139  0.5086753013609808   T   T   T
  0.3613395688559748  0.4301560406542677  0.5695676145704667   T   T   T
  0.4956170291199982  0.3722964041010783  0.5850370675640093   T   T   T
 
  0.00000000E+00  0.00000000E+00  0.00000000E+00
  0.00000000E+00  0.00000000E+00  0.00000000E+00
  0.00000000E+00  0.00000000E+00  0.00000000E+00
  0.00000000E+00  0.00000000E+00  0.00000000E+00
  0.00000000E+00  0.00000000E+00  0.00000000E+00
  0.00000000E+00  0.00000000E+00  0.00000000E+00
  0.00000000E+00  0.00000000E+00  0.00000000E+00
  0.00000000E+00  0.00000000E+00  0.00000000E+00
  0.00000000E+00  0.00000000E+00  0.00000000E+00
  0.00000000E+00  0.00000000E+00  0.00000000E+00
  0.00000000E+00  0.00000000E+00  0.00000000E+00
  0.00000000E+00  0.00000000E+00  0.00000000E+00
  0.00000000E+00  0.00000000E+00  0.00000000E+00
  0.00000000E+00  0.00000000E+00  0.00000000E+00
  0.00000000E+00  0.00000000E+00  0.00000000E+00
  0.00000000E+00  0.00000000E+00  0.00000000E+00
  0.00000000E+00  0.00000000E+00  0.00000000E+00
  0.00000000E+00  0.00000000E+00  0.00000000E+00
  0.00000000E+00  0.00000000E+00  0.00000000E+00
  0.00000000E+00  0.00000000E+00  0.00000000E+00
  0.00000000E+00  0.00000000E+00  0.00000000E+00
  0.00000000E+00  0.00000000E+00  0.00000000E+00
  0.00000000E+00  0.00000000E+00  0.00000000E+00
  0.00000000E+00  0.00000000E+00  0.00000000E+00
  0.00000000E+00  0.00000000E+00  0.00000000E+00
  0.00000000E+00  0.00000000E+00  0.00000000E+00
  0.00000000E+00  0.00000000E+00  0.00000000E+00
  0.00000000E+00  0.00000000E+00  0.00000000E+00
  0.00000000E+00  0.00000000E+00  0.00000000E+00
  0.00000000E+00  0.00000000E+00  0.00000000E+00
  0.00000000E+00  0.00000000E+00  0.00000000E+00
  0.00000000E+00  0.00000000E+00  0.00000000E+00
  0.00000000E+00  0.00000000E+00  0.00000000E+00
  0.00000000E+00  0.00000000E+00  0.00000000E+00
  0.00000000E+00  0.00000000E+00  0.00000000E+00
  0.00000000E+00  0.00000000E+00  0.00000000E+00
  0.00000000E+00  0.00000000E+00  0.00000000E+00
  0.00000000E+00  0.00000000E+00  0.00000000E+00
  0.00000000E+00  0.00000000E+00  0.00000000E+00
