Ag-Ti-H2O                               
   1.00000000000000     
     8.7913665770999998    0.0000000000000000    0.0000000000000000
     4.3956832885999999    7.6135467898000000    0.0000000000000000
     0.0000000000000000    0.0000000000000000   24.9519635624615859
   Ag   Ti   H    O 
    35     1     2     1
Selective dynamics
Direct
  0.0000000000000000  0.0000000000000000  0.2116942872471981   F   F   F
  0.3333333129999971  0.0000000000000000  0.2116942872471981   F   F   F
  0.6666666269999979  0.0000000000000000  0.2116942872471981   F   F   F
  0.0000000000000000  0.3333333429999996  0.2116942872471981   F   F   F
  0.3333333129999971  0.3333333429999996  0.2116942872471981   F   F   F
  0.6666666870000029  0.3333333429999996  0.2116942872471981   F   F   F
  0.0000000000000000  0.6666666870000029  0.2116942872471981   F   F   F
  0.3333333129999971  0.6666666870000029  0.2116942872471981   F   F   F
  0.6666666269999979  0.6666666870000029  0.2116942872471981   F   F   F
  0.1111111040000026  0.1111111120000032  0.3075868288647499   F   F   F
  0.4444444479999987  0.1111111120000032  0.3075868288647499   F   F   F
  0.7777777909999983  0.1111111120000032  0.3075868288647499   F   F   F
  0.1111110969999984  0.4444444479999987  0.3075868288647499   F   F   F
  0.4444444180000033  0.4444444479999987  0.3075868288647499   F   F   F
  0.7777777909999983  0.4444444479999987  0.3075868288647499   F   F   F
  0.1111111040000026  0.7777777909999983  0.3075868288647499   F   F   F
  0.4444444479999987  0.7777777909999983  0.3075868288647499   F   F   F
  0.7777777909999983  0.7777777909999983  0.3075868288647499   F   F   F
  0.8889653483856890  0.2220693192286092  0.4028318438544716   F   F   F
  0.2226089216950129  0.2226089366950106  0.4024113985903384   F   F   F
  0.5547820966099906  0.2226089366950106  0.4024113985903384   F   F   F
  0.8885490887583174  0.5557254856208402  0.4030724948413678   F   F   F
  0.2226089366950106  0.5547821566099884  0.4024113985903384   F   F   F
  0.5557254856208402  0.5557254856208402  0.4030724948413678   F   F   F
  0.8889653483856890  0.8889653483856890  0.4028318438544716   F   F   F
  0.2220692892286067  0.8889653483856890  0.4028318438544716   F   F   F
  0.5557254256208424  0.8885490887583174  0.4030724948413678   F   F   F
  0.0000000000000000  0.0000000000000000  0.4983228544618328   F   F   F
  0.3336304597392399  0.0038717592350892  0.4993263131788765   F   F   F
  0.6624977210256588  0.0038717592350892  0.4993263131788765   F   F   F
  0.0038717592350892  0.3336304897392424  0.4993263131788765   F   F   F
  0.6624977810256567  0.3336304897392424  0.4993263131788765   F   F   F
  0.0038717592350892  0.6624977810256567  0.4993263131788765   F   F   F
  0.3336304597392399  0.6624977810256567  0.4993263131788765   F   F   F
  0.6666666269999979  0.6666666870000029  0.4991302961050224   F   F   F
  0.3333333129999971  0.3333333429999996  0.4930391998598793   F   F   F
  0.2780338875955337  0.2637852592366272  0.5903288531808997   T   T   T
  0.4582218406345788  0.2631271987063144  0.5903366960625860   T   T   T
  0.3339157947938389  0.3322614421873169  0.5799578056732244   T   T   T
 
  0.00000000E+00  0.00000000E+00  0.00000000E+00
  0.00000000E+00  0.00000000E+00  0.00000000E+00
  0.00000000E+00  0.00000000E+00  0.00000000E+00
  0.00000000E+00  0.00000000E+00  0.00000000E+00
  0.00000000E+00  0.00000000E+00  0.00000000E+00
  0.00000000E+00  0.00000000E+00  0.00000000E+00
  0.00000000E+00  0.00000000E+00  0.00000000E+00
  0.00000000E+00  0.00000000E+00  0.00000000E+00
  0.00000000E+00  0.00000000E+00  0.00000000E+00
  0.00000000E+00  0.00000000E+00  0.00000000E+00
  0.00000000E+00  0.00000000E+00  0.00000000E+00
  0.00000000E+00  0.00000000E+00  0.00000000E+00
  0.00000000E+00  0.00000000E+00  0.00000000E+00
  0.00000000E+00  0.00000000E+00  0.00000000E+00
  0.00000000E+00  0.00000000E+00  0.00000000E+00
  0.00000000E+00  0.00000000E+00  0.00000000E+00
  0.00000000E+00  0.00000000E+00  0.00000000E+00
  0.00000000E+00  0.00000000E+00  0.00000000E+00
  0.00000000E+00  0.00000000E+00  0.00000000E+00
  0.00000000E+00  0.00000000E+00  0.00000000E+00
  0.00000000E+00  0.00000000E+00  0.00000000E+00
  0.00000000E+00  0.00000000E+00  0.00000000E+00
  0.00000000E+00  0.00000000E+00  0.00000000E+00
  0.00000000E+00  0.00000000E+00  0.00000000E+00
  0.00000000E+00  0.00000000E+00  0.00000000E+00
  0.00000000E+00  0.00000000E+00  0.00000000E+00
  0.00000000E+00  0.00000000E+00  0.00000000E+00
  0.00000000E+00  0.00000000E+00  0.00000000E+00
  0.00000000E+00  0.00000000E+00  0.00000000E+00
  0.00000000E+00  0.00000000E+00  0.00000000E+00
  0.00000000E+00  0.00000000E+00  0.00000000E+00
  0.00000000E+00  0.00000000E+00  0.00000000E+00
  0.00000000E+00  0.00000000E+00  0.00000000E+00
  0.00000000E+00  0.00000000E+00  0.00000000E+00
  0.00000000E+00  0.00000000E+00  0.00000000E+00
  0.00000000E+00  0.00000000E+00  0.00000000E+00
  0.00000000E+00  0.00000000E+00  0.00000000E+00
  0.00000000E+00  0.00000000E+00  0.00000000E+00
  0.00000000E+00  0.00000000E+00  0.00000000E+00
