Ag-Ni-O2                                
   1.00000000000000     
     8.7913665770999998    0.0000000000000000    0.0000000000000000
     4.3956832885999999    7.6135467898000000    0.0000000000000000
     0.0000000000000000    0.0000000000000000   24.3619652400959730
   Ag   Ni   O 
    35     1     2
Selective dynamics
Direct
  0.0000000000000000  0.0000000000000000  0.2168211016523287   F   F   F
  0.3333333129999971  0.0000000000000000  0.2168211016523287   F   F   F
  0.6666666269999979  0.0000000000000000  0.2168211016523287   F   F   F
  0.0000000000000000  0.3333333429999996  0.2168211016523287   F   F   F
  0.3333333129999971  0.3333333429999996  0.2168211016523287   F   F   F
  0.6666666870000029  0.3333333429999996  0.2168211016523287   F   F   F
  0.0000000000000000  0.6666666870000029  0.2168211016523287   F   F   F
  0.3333333129999971  0.6666666870000029  0.2168211016523287   F   F   F
  0.6666666269999979  0.6666666870000029  0.2168211016523287   F   F   F
  0.1111111040000026  0.1111111120000032  0.3150359698196610   F   F   F
  0.4444444479999987  0.1111111120000032  0.3150359698196610   F   F   F
  0.7777777909999983  0.1111111120000032  0.3150359698196610   F   F   F
  0.1111110969999984  0.4444444479999987  0.3150359698196610   F   F   F
  0.4444444180000033  0.4444444479999987  0.3150359698196610   F   F   F
  0.7777777909999983  0.4444444479999987  0.3150359698196610   F   F   F
  0.1111111040000026  0.7777777909999983  0.3150359698196610   F   F   F
  0.4444444479999987  0.7777777909999983  0.3150359698196610   F   F   F
  0.7777777909999983  0.7777777909999983  0.3150359698196610   F   F   F
  0.8886638936379967  0.2226722287240008  0.4128641517295790   F   F   F
  0.2227983717366513  0.2227983867366490  0.4122129453313406   F   F   F
  0.5544031965266996  0.2227983867366490  0.4122129453313406   F   F   F
  0.8885324368685588  0.5557338115657231  0.4123779968468071   F   F   F
  0.2227983867366490  0.5544032565266974  0.4122129453313406   F   F   F
  0.5557338115657231  0.5557338115657231  0.4123779968468071   F   F   F
  0.8886638936379967  0.8886638936379967  0.4128641517295790   F   F   F
  0.2226721987239983  0.8886638936379967  0.4128641517295790   F   F   F
  0.5557337515657181  0.8885324368685588  0.4123779968468071   F   F   F
  0.0000000000000000  0.0000000000000000  0.5099539795589223   F   F   F
  0.3333534775831666  0.0072303377364022  0.5097366224750814   F   F   F
  0.6594161246804333  0.0072303377364022  0.5097366224750814   F   F   F
  0.0072303377364022  0.3333535075831691  0.5097366224750814   F   F   F
  0.6594161846804383  0.3333535075831691  0.5097366224750814   F   F   F
  0.0072303377364022  0.6594161846804383  0.5097366224750814   F   F   F
  0.3333534775831666  0.6594161846804383  0.5097366224750814   F   F   F
  0.6666666269999979  0.6666666870000029  0.5098232725868215   F   F   F
  0.3333333129999971  0.3333333429999996  0.4982747617748586   F   F   F
  0.2524869012070070  0.3330734365363384  0.5713488070683397   T   T   T
  0.4144396312566485  0.3330734365363384  0.5713488070683397   T   T   T
 
  0.00000000E+00  0.00000000E+00  0.00000000E+00
  0.00000000E+00  0.00000000E+00  0.00000000E+00
  0.00000000E+00  0.00000000E+00  0.00000000E+00
  0.00000000E+00  0.00000000E+00  0.00000000E+00
  0.00000000E+00  0.00000000E+00  0.00000000E+00
  0.00000000E+00  0.00000000E+00  0.00000000E+00
  0.00000000E+00  0.00000000E+00  0.00000000E+00
  0.00000000E+00  0.00000000E+00  0.00000000E+00
  0.00000000E+00  0.00000000E+00  0.00000000E+00
  0.00000000E+00  0.00000000E+00  0.00000000E+00
  0.00000000E+00  0.00000000E+00  0.00000000E+00
  0.00000000E+00  0.00000000E+00  0.00000000E+00
  0.00000000E+00  0.00000000E+00  0.00000000E+00
  0.00000000E+00  0.00000000E+00  0.00000000E+00
  0.00000000E+00  0.00000000E+00  0.00000000E+00
  0.00000000E+00  0.00000000E+00  0.00000000E+00
  0.00000000E+00  0.00000000E+00  0.00000000E+00
  0.00000000E+00  0.00000000E+00  0.00000000E+00
  0.00000000E+00  0.00000000E+00  0.00000000E+00
  0.00000000E+00  0.00000000E+00  0.00000000E+00
  0.00000000E+00  0.00000000E+00  0.00000000E+00
  0.00000000E+00  0.00000000E+00  0.00000000E+00
  0.00000000E+00  0.00000000E+00  0.00000000E+00
  0.00000000E+00  0.00000000E+00  0.00000000E+00
  0.00000000E+00  0.00000000E+00  0.00000000E+00
  0.00000000E+00  0.00000000E+00  0.00000000E+00
  0.00000000E+00  0.00000000E+00  0.00000000E+00
  0.00000000E+00  0.00000000E+00  0.00000000E+00
  0.00000000E+00  0.00000000E+00  0.00000000E+00
  0.00000000E+00  0.00000000E+00  0.00000000E+00
  0.00000000E+00  0.00000000E+00  0.00000000E+00
  0.00000000E+00  0.00000000E+00  0.00000000E+00
  0.00000000E+00  0.00000000E+00  0.00000000E+00
  0.00000000E+00  0.00000000E+00  0.00000000E+00
  0.00000000E+00  0.00000000E+00  0.00000000E+00
  0.00000000E+00  0.00000000E+00  0.00000000E+00
  0.00000000E+00  0.00000000E+00  0.00000000E+00
  0.00000000E+00  0.00000000E+00  0.00000000E+00
