Cu-Fe-H2O                               
   1.00000000000000     
     7.6967864037000000    0.0000000000000000    0.0000000000000000
     3.8483927580000001    6.6656128092999998    0.0000000000000000
     0.0000000000000000    0.0000000000000000   24.2721068936942466
   Cu   Fe   H    O 
    35     1     2     1
Selective dynamics
Direct
  0.0000000000000000  0.0000000000000000  0.2213058662052134   F   F   F
  0.3333333429999996  0.0000000000000000  0.2213058662052134   F   F   F
  0.6666666870000029  0.0000000000000000  0.2213058662052134   F   F   F
  0.0000000000000000  0.3333333429999996  0.2213058662052134   F   F   F
  0.3333333129999971  0.3333333429999996  0.2213058662052134   F   F   F
  0.6666666870000029  0.3333333429999996  0.2213058662052134   F   F   F
  0.0000000000000000  0.6666666870000029  0.2213058662052134   F   F   F
  0.3333333730000021  0.6666666870000029  0.2213058662052134   F   F   F
  0.6666666269999979  0.6666666870000029  0.2213058662052134   F   F   F
  0.1111111190000003  0.1111111120000032  0.3076107049898482   F   F   F
  0.4444444180000033  0.1111111120000032  0.3076107049898482   F   F   F
  0.7777777909999983  0.1111111120000032  0.3076107049898482   F   F   F
  0.1111111190000003  0.4444444479999987  0.3076107049898482   F   F   F
  0.4444444780000012  0.4444444479999987  0.3076107049898482   F   F   F
  0.7777777310000005  0.4444444479999987  0.3076107049898482   F   F   F
  0.1111111120000032  0.7777777310000005  0.3076107049898482   F   F   F
  0.4444444780000012  0.7777777310000005  0.3076107049898482   F   F   F
  0.7777778510000033  0.7777777310000005  0.3076107049898482   F   F   F
  0.8886928775953677  0.2226142608092516  0.3936309310562010   F   F   F
  0.2223886165297628  0.2223886015297580  0.3931209455282527   F   F   F
  0.5552228269404580  0.2223886015297580  0.3931209455282527   F   F   F
  0.8883874839824131  0.5558062280087910  0.3936417681320279   F   F   F
  0.2223885865297675  0.5552227669404601  0.3931209455282527   F   F   F
  0.5558062880087888  0.5558062280087910  0.3936417681320279   F   F   F
  0.8886928775953677  0.8886928775953677  0.3936309310562010   F   F   F
  0.2226142758092493  0.8886928775953677  0.3936309310562010   F   F   F
  0.5558062280087910  0.8883874839824131  0.3936417681320279   F   F   F
  0.0000000000000000  0.0000000000000000  0.4789609276788482   F   F   F
  0.3330866475207230  0.0033126154333516  0.4793850251566667   F   F   F
  0.6636007670459279  0.0033126154333516  0.4793850251566667   F   F   F
  0.0033126154333516  0.3330866475207230  0.4793850251566667   F   F   F
  0.6636007670459279  0.3330866475207230  0.4793850251566667   F   F   F
  0.0033126154333516  0.6636007670459279  0.4793850251566667   F   F   F
  0.3330866775207184  0.6636007670459279  0.4793850251566667   F   F   F
  0.6666666269999979  0.6666666870000029  0.4789805627157122   F   F   F
  0.3333333129999971  0.3333333429999996  0.4744226600093029   F   F   F
  0.2716456118672497  0.2531873073366526  0.5715909855783536   T   T   T
  0.4751902510256656  0.2518951320979355  0.5711429939675199   T   T   T
  0.3314213219556379  0.3369759907462537  0.5637280242203175   T   T   T
 
  0.00000000E+00  0.00000000E+00  0.00000000E+00
  0.00000000E+00  0.00000000E+00  0.00000000E+00
  0.00000000E+00  0.00000000E+00  0.00000000E+00
  0.00000000E+00  0.00000000E+00  0.00000000E+00
  0.00000000E+00  0.00000000E+00  0.00000000E+00
  0.00000000E+00  0.00000000E+00  0.00000000E+00
  0.00000000E+00  0.00000000E+00  0.00000000E+00
  0.00000000E+00  0.00000000E+00  0.00000000E+00
  0.00000000E+00  0.00000000E+00  0.00000000E+00
  0.00000000E+00  0.00000000E+00  0.00000000E+00
  0.00000000E+00  0.00000000E+00  0.00000000E+00
  0.00000000E+00  0.00000000E+00  0.00000000E+00
  0.00000000E+00  0.00000000E+00  0.00000000E+00
  0.00000000E+00  0.00000000E+00  0.00000000E+00
  0.00000000E+00  0.00000000E+00  0.00000000E+00
  0.00000000E+00  0.00000000E+00  0.00000000E+00
  0.00000000E+00  0.00000000E+00  0.00000000E+00
  0.00000000E+00  0.00000000E+00  0.00000000E+00
  0.00000000E+00  0.00000000E+00  0.00000000E+00
  0.00000000E+00  0.00000000E+00  0.00000000E+00
  0.00000000E+00  0.00000000E+00  0.00000000E+00
  0.00000000E+00  0.00000000E+00  0.00000000E+00
  0.00000000E+00  0.00000000E+00  0.00000000E+00
  0.00000000E+00  0.00000000E+00  0.00000000E+00
  0.00000000E+00  0.00000000E+00  0.00000000E+00
  0.00000000E+00  0.00000000E+00  0.00000000E+00
  0.00000000E+00  0.00000000E+00  0.00000000E+00
  0.00000000E+00  0.00000000E+00  0.00000000E+00
  0.00000000E+00  0.00000000E+00  0.00000000E+00
  0.00000000E+00  0.00000000E+00  0.00000000E+00
  0.00000000E+00  0.00000000E+00  0.00000000E+00
  0.00000000E+00  0.00000000E+00  0.00000000E+00
  0.00000000E+00  0.00000000E+00  0.00000000E+00
  0.00000000E+00  0.00000000E+00  0.00000000E+00
  0.00000000E+00  0.00000000E+00  0.00000000E+00
  0.00000000E+00  0.00000000E+00  0.00000000E+00
  0.00000000E+00  0.00000000E+00  0.00000000E+00
  0.00000000E+00  0.00000000E+00  0.00000000E+00
  0.00000000E+00  0.00000000E+00  0.00000000E+00
