Cu-Pd-CO                                
   1.00000000000000     
     7.6967864037000000    0.0000000000000000    0.0000000000000000
     3.8483927580000001    6.6656128092999998    0.0000000000000000
     0.0000000000000000    0.0000000000000000   24.6567034444248563
   Cu   Pd   C    O 
    35     1     1     1
Selective dynamics
Direct
  0.0000000000000000  0.0000000000000000  0.2178539257221388   F   F   F
  0.3333333429999996  0.0000000000000000  0.2178539257221388   F   F   F
  0.6666666870000029  0.0000000000000000  0.2178539257221388   F   F   F
  0.0000000000000000  0.3333333429999996  0.2178539257221388   F   F   F
  0.3333333129999971  0.3333333429999996  0.2178539257221388   F   F   F
  0.6666666870000029  0.3333333429999996  0.2178539257221388   F   F   F
  0.0000000000000000  0.6666666870000029  0.2178539257221388   F   F   F
  0.3333333730000021  0.6666666870000029  0.2178539257221388   F   F   F
  0.6666666269999979  0.6666666870000029  0.2178539257221388   F   F   F
  0.1111111190000003  0.1111111120000032  0.3028125771146577   F   F   F
  0.4444444180000033  0.1111111120000032  0.3028125771146577   F   F   F
  0.7777777909999983  0.1111111120000032  0.3028125771146577   F   F   F
  0.1111111190000003  0.4444444479999987  0.3028125771146577   F   F   F
  0.4444444780000012  0.4444444479999987  0.3028125771146577   F   F   F
  0.7777777310000005  0.4444444479999987  0.3028125771146577   F   F   F
  0.1111111120000032  0.7777777310000005  0.3028125771146577   F   F   F
  0.4444444780000012  0.7777777310000005  0.3028125771146577   F   F   F
  0.7777778510000033  0.7777777310000005  0.3028125771146577   F   F   F
  0.8888154421816878  0.2223691316366114  0.3869116077825012   F   F   F
  0.2216923665252608  0.2216923515252631  0.3869070144839029   F   F   F
  0.5566153269494691  0.2216923515252631  0.3869070144839029   F   F   F
  0.8890422745120432  0.5554788327439795  0.3872099431532092   F   F   F
  0.2216923365252583  0.5566152669494784  0.3869070144839029   F   F   F
  0.5554788927439702  0.5554788327439795  0.3872099431532092   F   F   F
  0.8888154421816878  0.8888154421816878  0.3869116077825012   F   F   F
  0.2223691466366091  0.8888154421816878  0.3869116077825012   F   F   F
  0.5554788327439795  0.8890422745120432  0.3872099431532092   F   F   F
  0.0000000000000000  0.0000000000000000  0.4708733395862694   F   F   F
  0.3330959822069701  0.9963070024563692  0.4713583870912785   F   F   F
  0.6705970453366703  0.9963070024563692  0.4713583870912785   F   F   F
  0.9963070024563692  0.3330959822069701  0.4713583870912785   F   F   F
  0.6705970453366703  0.3330959822069701  0.4713583870912785   F   F   F
  0.9963070024563692  0.6705970453366703  0.4713583870912785   F   F   F
  0.3330960122069726  0.6705970453366703  0.4713583870912785   F   F   F
  0.6666666269999979  0.6666666870000029  0.4709127271569997   F   F   F
  0.3333333129999971  0.3333333429999996  0.4743312966897832   F   F   F
  0.3333333129999971  0.3333333429999996  0.5519084017467506   T   T   T
  0.3333333129999971  0.3333333429999996  0.5988859506486293   T   T   T
 
  0.00000000E+00  0.00000000E+00  0.00000000E+00
  0.00000000E+00  0.00000000E+00  0.00000000E+00
  0.00000000E+00  0.00000000E+00  0.00000000E+00
  0.00000000E+00  0.00000000E+00  0.00000000E+00
  0.00000000E+00  0.00000000E+00  0.00000000E+00
  0.00000000E+00  0.00000000E+00  0.00000000E+00
  0.00000000E+00  0.00000000E+00  0.00000000E+00
  0.00000000E+00  0.00000000E+00  0.00000000E+00
  0.00000000E+00  0.00000000E+00  0.00000000E+00
  0.00000000E+00  0.00000000E+00  0.00000000E+00
  0.00000000E+00  0.00000000E+00  0.00000000E+00
  0.00000000E+00  0.00000000E+00  0.00000000E+00
  0.00000000E+00  0.00000000E+00  0.00000000E+00
  0.00000000E+00  0.00000000E+00  0.00000000E+00
  0.00000000E+00  0.00000000E+00  0.00000000E+00
  0.00000000E+00  0.00000000E+00  0.00000000E+00
  0.00000000E+00  0.00000000E+00  0.00000000E+00
  0.00000000E+00  0.00000000E+00  0.00000000E+00
  0.00000000E+00  0.00000000E+00  0.00000000E+00
  0.00000000E+00  0.00000000E+00  0.00000000E+00
  0.00000000E+00  0.00000000E+00  0.00000000E+00
  0.00000000E+00  0.00000000E+00  0.00000000E+00
  0.00000000E+00  0.00000000E+00  0.00000000E+00
  0.00000000E+00  0.00000000E+00  0.00000000E+00
  0.00000000E+00  0.00000000E+00  0.00000000E+00
  0.00000000E+00  0.00000000E+00  0.00000000E+00
  0.00000000E+00  0.00000000E+00  0.00000000E+00
  0.00000000E+00  0.00000000E+00  0.00000000E+00
  0.00000000E+00  0.00000000E+00  0.00000000E+00
  0.00000000E+00  0.00000000E+00  0.00000000E+00
  0.00000000E+00  0.00000000E+00  0.00000000E+00
  0.00000000E+00  0.00000000E+00  0.00000000E+00
  0.00000000E+00  0.00000000E+00  0.00000000E+00
  0.00000000E+00  0.00000000E+00  0.00000000E+00
  0.00000000E+00  0.00000000E+00  0.00000000E+00
  0.00000000E+00  0.00000000E+00  0.00000000E+00
  0.00000000E+00  0.00000000E+00  0.00000000E+00
  0.00000000E+00  0.00000000E+00  0.00000000E+00
