Cu-Ta-C                                 
   1.00000000000000     
     7.6967864037000000    0.0000000000000000    0.0000000000000000
     3.8483927580000001    6.6656128092999998    0.0000000000000000
     0.0000000000000000    0.0000000000000000   23.7897786731327727
   Cu   Ta   C 
    35     1     1
Selective dynamics
Direct
  0.0000000000000000  0.0000000000000000  0.2257927538771511   F   F   F
  0.3333333429999996  0.0000000000000000  0.2257927538771511   F   F   F
  0.6666666870000029  0.0000000000000000  0.2257927538771511   F   F   F
  0.0000000000000000  0.3333333429999996  0.2257927538771511   F   F   F
  0.3333333129999971  0.3333333429999996  0.2257927538771511   F   F   F
  0.6666666870000029  0.3333333429999996  0.2257927538771511   F   F   F
  0.0000000000000000  0.6666666870000029  0.2257927538771511   F   F   F
  0.3333333730000021  0.6666666870000029  0.2257927538771511   F   F   F
  0.6666666269999979  0.6666666870000029  0.2257927538771511   F   F   F
  0.1111111190000003  0.1111111120000032  0.3138473886514319   F   F   F
  0.4444444180000033  0.1111111120000032  0.3138473886514319   F   F   F
  0.7777777909999983  0.1111111120000032  0.3138473886514319   F   F   F
  0.1111111190000003  0.4444444479999987  0.3138473886514319   F   F   F
  0.4444444780000012  0.4444444479999987  0.3138473886514319   F   F   F
  0.7777777310000005  0.4444444479999987  0.3138473886514319   F   F   F
  0.1111111120000032  0.7777777310000005  0.3138473886514319   F   F   F
  0.4444444780000012  0.7777777310000005  0.3138473886514319   F   F   F
  0.7777778510000033  0.7777777310000005  0.3138473886514319   F   F   F
  0.8889207598748001  0.2221584962504011  0.4015114484732791   F   F   F
  0.2217025894100217  0.2217025744100170  0.4014528013157275   F   F   F
  0.5565948811799473  0.2217025744100170  0.4014528013157275   F   F   F
  0.8883591808017925  0.5558203795990977  0.4022427057912594   F   F   F
  0.2217025594100335  0.5565948211799494  0.4014528013157275   F   F   F
  0.5558204395991027  0.5558203795990977  0.4022427057912594   F   F   F
  0.8889207598748001  0.8889207598748001  0.4015114484732791   F   F   F
  0.2221585112503988  0.8889207598748001  0.4015114484732791   F   F   F
  0.5558203795990977  0.8883591808017925  0.4022427057912594   F   F   F
  0.0000000000000000  0.0000000000000000  0.4899843766511509   F   F   F
  0.3333224260259868  0.9970181910957621  0.4914171973849903   F   F   F
  0.6696594128782465  0.9970181910957621  0.4914171973849903   F   F   F
  0.9970181910957621  0.3333224260259868  0.4914171973849903   F   F   F
  0.6696594128782465  0.3333224260259868  0.4914171973849903   F   F   F
  0.9970181910957621  0.6696594128782465  0.4914171973849903   F   F   F
  0.3333224560260035  0.6696594128782465  0.4914171973849903   F   F   F
  0.6666666269999979  0.6666666870000029  0.4908223899272528   F   F   F
  0.3333333129999971  0.3333333429999996  0.4915367052918072   F   F   F
  0.3333333129999971  0.3333333429999996  0.5700946124654918   T   T   T
 
  0.00000000E+00  0.00000000E+00  0.00000000E+00
  0.00000000E+00  0.00000000E+00  0.00000000E+00
  0.00000000E+00  0.00000000E+00  0.00000000E+00
  0.00000000E+00  0.00000000E+00  0.00000000E+00
  0.00000000E+00  0.00000000E+00  0.00000000E+00
  0.00000000E+00  0.00000000E+00  0.00000000E+00
  0.00000000E+00  0.00000000E+00  0.00000000E+00
  0.00000000E+00  0.00000000E+00  0.00000000E+00
  0.00000000E+00  0.00000000E+00  0.00000000E+00
  0.00000000E+00  0.00000000E+00  0.00000000E+00
  0.00000000E+00  0.00000000E+00  0.00000000E+00
  0.00000000E+00  0.00000000E+00  0.00000000E+00
  0.00000000E+00  0.00000000E+00  0.00000000E+00
  0.00000000E+00  0.00000000E+00  0.00000000E+00
  0.00000000E+00  0.00000000E+00  0.00000000E+00
  0.00000000E+00  0.00000000E+00  0.00000000E+00
  0.00000000E+00  0.00000000E+00  0.00000000E+00
  0.00000000E+00  0.00000000E+00  0.00000000E+00
  0.00000000E+00  0.00000000E+00  0.00000000E+00
  0.00000000E+00  0.00000000E+00  0.00000000E+00
  0.00000000E+00  0.00000000E+00  0.00000000E+00
  0.00000000E+00  0.00000000E+00  0.00000000E+00
  0.00000000E+00  0.00000000E+00  0.00000000E+00
  0.00000000E+00  0.00000000E+00  0.00000000E+00
  0.00000000E+00  0.00000000E+00  0.00000000E+00
  0.00000000E+00  0.00000000E+00  0.00000000E+00
  0.00000000E+00  0.00000000E+00  0.00000000E+00
  0.00000000E+00  0.00000000E+00  0.00000000E+00
  0.00000000E+00  0.00000000E+00  0.00000000E+00
  0.00000000E+00  0.00000000E+00  0.00000000E+00
  0.00000000E+00  0.00000000E+00  0.00000000E+00
  0.00000000E+00  0.00000000E+00  0.00000000E+00
  0.00000000E+00  0.00000000E+00  0.00000000E+00
  0.00000000E+00  0.00000000E+00  0.00000000E+00
  0.00000000E+00  0.00000000E+00  0.00000000E+00
  0.00000000E+00  0.00000000E+00  0.00000000E+00
  0.00000000E+00  0.00000000E+00  0.00000000E+00
