Au-Rh-OOH                               
   1.00000000000000     
     8.8135128021000000    0.0000000000000000    0.0000000000000000
     4.4067569092000003    7.6327256898000000    0.0000000000000000
     0.0000000000000000    0.0000000000000000   25.9228484302073312
   Au   Rh   O    H 
    35     1     2     1
Selective dynamics
Direct
  0.0000000000000000  0.0000000000000000  0.2036959766679587   F   F   F
  0.3333333429999996  0.0000000000000000  0.2036959766679587   F   F   F
  0.6666666870000029  0.0000000000000000  0.2036959766679587   F   F   F
  0.0000000000000000  0.3333333429999996  0.2036959766679587   F   F   F
  0.3333333129999971  0.3333333429999996  0.2036959766679587   F   F   F
  0.6666666870000029  0.3333333429999996  0.2036959766679587   F   F   F
  0.0000000000000000  0.6666666870000029  0.2036959766679587   F   F   F
  0.3333333429999996  0.6666666870000029  0.2036959766679587   F   F   F
  0.6666666269999979  0.6666666870000029  0.2036959766679587   F   F   F
  0.1111111190000003  0.1111111120000032  0.2962295623638127   F   F   F
  0.4444444180000033  0.1111111120000032  0.2962295623638127   F   F   F
  0.7777777909999983  0.1111111120000032  0.2962295623638127   F   F   F
  0.1111111270000009  0.4444444479999987  0.2962295623638127   F   F   F
  0.4444444780000012  0.4444444479999987  0.2962295623638127   F   F   F
  0.7777777310000005  0.4444444479999987  0.2962295623638127   F   F   F
  0.1111110900000014  0.7777777909999983  0.2962295623638127   F   F   F
  0.4444444479999987  0.7777777909999983  0.2962295623638127   F   F   F
  0.7777778510000033  0.7777777909999983  0.2962295623638127   F   F   F
  0.8888859662926407  0.2222280834147128  0.3885740847269901   F   F   F
  0.2221307948628635  0.2221307798628587  0.3875892853207787   F   F   F
  0.5557384702742709  0.2221307798628587  0.3875892853207787   F   F   F
  0.8878507211795323  0.5560746694102292  0.3883678407654898   F   F   F
  0.2221307498628633  0.5557384702742709  0.3875892853207787   F   F   F
  0.5560746694102292  0.5560746694102292  0.3883678407654898   F   F   F
  0.8888859662926407  0.8888859662926407  0.3885740847269901   F   F   F
  0.2222281134147224  0.8888859662926407  0.3885740847269901   F   F   F
  0.5560746094102313  0.8878507211795323  0.3883678407654898   F   F   F
  0.0000000000000000  0.0000000000000000  0.4819960767880929   F   F   F
  0.3332608877112690  0.0039849546408988  0.4813686874271568   F   F   F
  0.6627541876478489  0.0039849546408988  0.4813686874271568   F   F   F
  0.0039849546408988  0.3332608877112690  0.4813686874271568   F   F   F
  0.6627541876478489  0.3332608877112690  0.4813686874271568   F   F   F
  0.0039849546408988  0.6627541876478489  0.4813686874271568   F   F   F
  0.3332608877112690  0.6627541876478489  0.4813686874271568   F   F   F
  0.6666666269999979  0.6666666870000029  0.4819926150643781   F   F   F
  0.3333333129999971  0.3333333429999996  0.4729892416201977   F   F   F
  0.3127997355706569  0.3537990931114692  0.5478387613090092   T   T   T
  0.4193041353251488  0.1911679096124885  0.5761289792322160   T   T   T
  0.5201601145020405  0.2041608457386346  0.5859037658035930   T   T   T
 
  0.00000000E+00  0.00000000E+00  0.00000000E+00
  0.00000000E+00  0.00000000E+00  0.00000000E+00
  0.00000000E+00  0.00000000E+00  0.00000000E+00
  0.00000000E+00  0.00000000E+00  0.00000000E+00
  0.00000000E+00  0.00000000E+00  0.00000000E+00
  0.00000000E+00  0.00000000E+00  0.00000000E+00
  0.00000000E+00  0.00000000E+00  0.00000000E+00
  0.00000000E+00  0.00000000E+00  0.00000000E+00
  0.00000000E+00  0.00000000E+00  0.00000000E+00
  0.00000000E+00  0.00000000E+00  0.00000000E+00
  0.00000000E+00  0.00000000E+00  0.00000000E+00
  0.00000000E+00  0.00000000E+00  0.00000000E+00
  0.00000000E+00  0.00000000E+00  0.00000000E+00
  0.00000000E+00  0.00000000E+00  0.00000000E+00
  0.00000000E+00  0.00000000E+00  0.00000000E+00
  0.00000000E+00  0.00000000E+00  0.00000000E+00
  0.00000000E+00  0.00000000E+00  0.00000000E+00
  0.00000000E+00  0.00000000E+00  0.00000000E+00
  0.00000000E+00  0.00000000E+00  0.00000000E+00
  0.00000000E+00  0.00000000E+00  0.00000000E+00
  0.00000000E+00  0.00000000E+00  0.00000000E+00
  0.00000000E+00  0.00000000E+00  0.00000000E+00
  0.00000000E+00  0.00000000E+00  0.00000000E+00
  0.00000000E+00  0.00000000E+00  0.00000000E+00
  0.00000000E+00  0.00000000E+00  0.00000000E+00
  0.00000000E+00  0.00000000E+00  0.00000000E+00
  0.00000000E+00  0.00000000E+00  0.00000000E+00
  0.00000000E+00  0.00000000E+00  0.00000000E+00
  0.00000000E+00  0.00000000E+00  0.00000000E+00
  0.00000000E+00  0.00000000E+00  0.00000000E+00
  0.00000000E+00  0.00000000E+00  0.00000000E+00
  0.00000000E+00  0.00000000E+00  0.00000000E+00
  0.00000000E+00  0.00000000E+00  0.00000000E+00
  0.00000000E+00  0.00000000E+00  0.00000000E+00
  0.00000000E+00  0.00000000E+00  0.00000000E+00
  0.00000000E+00  0.00000000E+00  0.00000000E+00
  0.00000000E+00  0.00000000E+00  0.00000000E+00
  0.00000000E+00  0.00000000E+00  0.00000000E+00
  0.00000000E+00  0.00000000E+00  0.00000000E+00
