Au-Ru-N                                 
   1.00000000000000     
     8.8135128021000000    0.0000000000000000    0.0000000000000000
     4.4067569092000003    7.6327256898000000    0.0000000000000000
     0.0000000000000000    0.0000000000000000   22.1962032317999984
   Au   Ru   N 
    35     1     1
Selective dynamics
Direct
  0.0000000000000000  0.0000000000000000  0.2378956379999977   F   F   F
  0.3333333429999996  0.0000000000000000  0.2378956379999977   F   F   F
  0.6666666870000029  0.0000000000000000  0.2378956379999977   F   F   F
  0.0000000000000000  0.3333333429999996  0.2378956379999977   F   F   F
  0.3333333129999971  0.3333333429999996  0.2378956379999977   F   F   F
  0.6666666870000029  0.3333333429999996  0.2378956379999977   F   F   F
  0.0000000000000000  0.6666666870000029  0.2378956379999977   F   F   F
  0.3333333429999996  0.6666666870000029  0.2378956379999977   F   F   F
  0.6666666269999979  0.6666666870000029  0.2378956379999977   F   F   F
  0.1111111190000003  0.1111111120000032  0.3459652069999990   F   F   F
  0.4444444180000033  0.1111111120000032  0.3459652069999990   F   F   F
  0.7777777909999983  0.1111111120000032  0.3459652069999990   F   F   F
  0.1111111270000009  0.4444444479999987  0.3459652069999990   F   F   F
  0.4444444780000012  0.4444444479999987  0.3459652069999990   F   F   F
  0.7777777310000005  0.4444444479999987  0.3459652069999990   F   F   F
  0.1111110900000014  0.7777777909999983  0.3459652069999990   F   F   F
  0.4444444479999987  0.7777777909999983  0.3459652069999990   F   F   F
  0.7777778510000033  0.7777777909999983  0.3459652069999990   F   F   F
  0.8888463503373174  0.2223073153253665  0.4539365560065534   F   F   F
  0.2225610744921482  0.2225610594921505  0.4523837115765161   F   F   F
  0.5548779110156872  0.2225610594921505  0.4523837115765161   F   F   F
  0.8866316819546896  0.5566841890226542  0.4533637144973000   F   F   F
  0.2225610294921481  0.5548779110156872  0.4523837115765161   F   F   F
  0.5566841890226542  0.5566841890226542  0.4533637144973000   F   F   F
  0.8888463503373174  0.8888463503373174  0.4539365560065534   F   F   F
  0.2223073453253690  0.8888463503373174  0.4539365560065534   F   F   F
  0.5566841290226563  0.8866316819546896  0.4533637144973000   F   F   F
  0.0000000000000000  0.0000000000000000  0.5629158245501671   F   F   F
  0.3332495806553908  0.0066113765015956  0.5621850768039565   F   F   F
  0.6601390728430161  0.0066113765015956  0.5621850768039565   F   F   F
  0.0066113765015956  0.3332495806553908  0.5621850768039565   F   F   F
  0.6601390728430161  0.3332495806553908  0.5621850768039565   F   F   F
  0.0066113765015956  0.6601390728430161  0.5621850768039565   F   F   F
  0.3332495806553908  0.6601390728430161  0.5621850768039565   F   F   F
  0.6666666269999979  0.6666666870000029  0.5629587452825007   F   F   F
  0.3333333129999971  0.3333333429999996  0.5515350535191033   F   F   F
  0.3333333129999971  0.3333333429999996  0.6252942151294150   T   T   T
 
  0.00000000E+00  0.00000000E+00  0.00000000E+00
  0.00000000E+00  0.00000000E+00  0.00000000E+00
  0.00000000E+00  0.00000000E+00  0.00000000E+00
  0.00000000E+00  0.00000000E+00  0.00000000E+00
  0.00000000E+00  0.00000000E+00  0.00000000E+00
  0.00000000E+00  0.00000000E+00  0.00000000E+00
  0.00000000E+00  0.00000000E+00  0.00000000E+00
  0.00000000E+00  0.00000000E+00  0.00000000E+00
  0.00000000E+00  0.00000000E+00  0.00000000E+00
  0.00000000E+00  0.00000000E+00  0.00000000E+00
  0.00000000E+00  0.00000000E+00  0.00000000E+00
  0.00000000E+00  0.00000000E+00  0.00000000E+00
  0.00000000E+00  0.00000000E+00  0.00000000E+00
  0.00000000E+00  0.00000000E+00  0.00000000E+00
  0.00000000E+00  0.00000000E+00  0.00000000E+00
  0.00000000E+00  0.00000000E+00  0.00000000E+00
  0.00000000E+00  0.00000000E+00  0.00000000E+00
  0.00000000E+00  0.00000000E+00  0.00000000E+00
  0.00000000E+00  0.00000000E+00  0.00000000E+00
  0.00000000E+00  0.00000000E+00  0.00000000E+00
  0.00000000E+00  0.00000000E+00  0.00000000E+00
  0.00000000E+00  0.00000000E+00  0.00000000E+00
  0.00000000E+00  0.00000000E+00  0.00000000E+00
  0.00000000E+00  0.00000000E+00  0.00000000E+00
  0.00000000E+00  0.00000000E+00  0.00000000E+00
  0.00000000E+00  0.00000000E+00  0.00000000E+00
  0.00000000E+00  0.00000000E+00  0.00000000E+00
  0.00000000E+00  0.00000000E+00  0.00000000E+00
  0.00000000E+00  0.00000000E+00  0.00000000E+00
  0.00000000E+00  0.00000000E+00  0.00000000E+00
  0.00000000E+00  0.00000000E+00  0.00000000E+00
  0.00000000E+00  0.00000000E+00  0.00000000E+00
  0.00000000E+00  0.00000000E+00  0.00000000E+00
  0.00000000E+00  0.00000000E+00  0.00000000E+00
  0.00000000E+00  0.00000000E+00  0.00000000E+00
  0.00000000E+00  0.00000000E+00  0.00000000E+00
  0.00000000E+00  0.00000000E+00  0.00000000E+00
