Au-Rh-CO2                               
   1.00000000000000     
     8.8135128021000000    0.0000000000000000    0.0000000000000000
     4.4067569092000003    7.6327256898000000    0.0000000000000000
     0.0000000000000000    0.0000000000000000   24.3691142039813293
   Au   Rh   C    O 
    35     1     1     2
Selective dynamics
Direct
  0.0000000000000000  0.0000000000000000  0.2166832936481526   F   F   F
  0.3333333429999996  0.0000000000000000  0.2166832936481526   F   F   F
  0.6666666870000029  0.0000000000000000  0.2166832936481526   F   F   F
  0.0000000000000000  0.3333333429999996  0.2166832936481526   F   F   F
  0.3333333129999971  0.3333333429999996  0.2166832936481526   F   F   F
  0.6666666870000029  0.3333333429999996  0.2166832936481526   F   F   F
  0.0000000000000000  0.6666666870000029  0.2166832936481526   F   F   F
  0.3333333429999996  0.6666666870000029  0.2166832936481526   F   F   F
  0.6666666269999979  0.6666666870000029  0.2166832936481526   F   F   F
  0.1111111190000003  0.1111111120000032  0.3151166670001118   F   F   F
  0.4444444180000033  0.1111111120000032  0.3151166670001118   F   F   F
  0.7777777909999983  0.1111111120000032  0.3151166670001118   F   F   F
  0.1111111270000009  0.4444444479999987  0.3151166670001118   F   F   F
  0.4444444780000012  0.4444444479999987  0.3151166670001118   F   F   F
  0.7777777310000005  0.4444444479999987  0.3151166670001118   F   F   F
  0.1111110900000014  0.7777777909999983  0.3151166670001118   F   F   F
  0.4444444479999987  0.7777777909999983  0.3151166670001118   F   F   F
  0.7777778510000033  0.7777777909999983  0.3151166670001118   F   F   F
  0.8888859662926407  0.2222280834147128  0.4133489226554872   F   F   F
  0.2221307948628635  0.2221307798628587  0.4123013340756430   F   F   F
  0.5557384702742709  0.2221307798628587  0.4123013340756430   F   F   F
  0.8878507211795323  0.5560746694102292  0.4131295289217434   F   F   F
  0.2221307498628633  0.5557384702742709  0.4123013340756430   F   F   F
  0.5560746694102292  0.5560746694102292  0.4131295289217434   F   F   F
  0.8888859662926407  0.8888859662926407  0.4133489226554872   F   F   F
  0.2222281134147224  0.8888859662926407  0.4133489226554872   F   F   F
  0.5560746094102313  0.8878507211795323  0.4131295289217434   F   F   F
  0.0000000000000000  0.0000000000000000  0.5127273456862369   F   F   F
  0.3332608877112690  0.0039849546408988  0.5120599550222309   F   F   F
  0.6627541876478489  0.0039849546408988  0.5120599550222309   F   F   F
  0.0039849546408988  0.3332608877112690  0.5120599550222309   F   F   F
  0.6627541876478489  0.3332608877112690  0.5120599550222309   F   F   F
  0.0039849546408988  0.6627541876478489  0.5120599550222309   F   F   F
  0.3332608877112690  0.6627541876478489  0.5120599550222309   F   F   F
  0.6666666269999979  0.6666666870000029  0.5127236632487779   F   F   F
  0.3333333129999971  0.3333333429999996  0.5031462496751686   F   F   F
  0.3351883868565463  0.3323161440356112  0.6553979832612158   T   T   T
  0.2038638554649305  0.3280245815368101  0.6551488664069176   T   T   T
  0.4665040410643101  0.3366109078621843  0.6556668304257979   T   T   T
 
  0.00000000E+00  0.00000000E+00  0.00000000E+00
  0.00000000E+00  0.00000000E+00  0.00000000E+00
  0.00000000E+00  0.00000000E+00  0.00000000E+00
  0.00000000E+00  0.00000000E+00  0.00000000E+00
  0.00000000E+00  0.00000000E+00  0.00000000E+00
  0.00000000E+00  0.00000000E+00  0.00000000E+00
  0.00000000E+00  0.00000000E+00  0.00000000E+00
  0.00000000E+00  0.00000000E+00  0.00000000E+00
  0.00000000E+00  0.00000000E+00  0.00000000E+00
  0.00000000E+00  0.00000000E+00  0.00000000E+00
  0.00000000E+00  0.00000000E+00  0.00000000E+00
  0.00000000E+00  0.00000000E+00  0.00000000E+00
  0.00000000E+00  0.00000000E+00  0.00000000E+00
  0.00000000E+00  0.00000000E+00  0.00000000E+00
  0.00000000E+00  0.00000000E+00  0.00000000E+00
  0.00000000E+00  0.00000000E+00  0.00000000E+00
  0.00000000E+00  0.00000000E+00  0.00000000E+00
  0.00000000E+00  0.00000000E+00  0.00000000E+00
  0.00000000E+00  0.00000000E+00  0.00000000E+00
  0.00000000E+00  0.00000000E+00  0.00000000E+00
  0.00000000E+00  0.00000000E+00  0.00000000E+00
  0.00000000E+00  0.00000000E+00  0.00000000E+00
  0.00000000E+00  0.00000000E+00  0.00000000E+00
  0.00000000E+00  0.00000000E+00  0.00000000E+00
  0.00000000E+00  0.00000000E+00  0.00000000E+00
  0.00000000E+00  0.00000000E+00  0.00000000E+00
  0.00000000E+00  0.00000000E+00  0.00000000E+00
  0.00000000E+00  0.00000000E+00  0.00000000E+00
  0.00000000E+00  0.00000000E+00  0.00000000E+00
  0.00000000E+00  0.00000000E+00  0.00000000E+00
  0.00000000E+00  0.00000000E+00  0.00000000E+00
  0.00000000E+00  0.00000000E+00  0.00000000E+00
  0.00000000E+00  0.00000000E+00  0.00000000E+00
  0.00000000E+00  0.00000000E+00  0.00000000E+00
  0.00000000E+00  0.00000000E+00  0.00000000E+00
  0.00000000E+00  0.00000000E+00  0.00000000E+00
  0.00000000E+00  0.00000000E+00  0.00000000E+00
  0.00000000E+00  0.00000000E+00  0.00000000E+00
  0.00000000E+00  0.00000000E+00  0.00000000E+00
