Cu-Mo                                   
   1.00000000000000     
     7.6967864037000000    0.0000000000000000    0.0000000000000000
     3.8483927580000001    6.6656128092999998    0.0000000000000000
     0.0000000000000000    0.0000000000000000   21.2843990325999997
   Cu   Mo
    35     1
Selective dynamics
Direct
  0.0000000000000000  0.0000000000000000  0.2523707450000003   F   F   F
  0.3333333429999996  0.0000000000000000  0.2523707450000003   F   F   F
  0.6666666870000029  0.0000000000000000  0.2523707450000003   F   F   F
  0.0000000000000000  0.3333333429999996  0.2523707450000003   F   F   F
  0.3333333129999971  0.3333333429999996  0.2523707450000003   F   F   F
  0.6666666870000029  0.3333333429999996  0.2523707450000003   F   F   F
  0.0000000000000000  0.6666666870000029  0.2523707450000003   F   F   F
  0.3333333730000021  0.6666666870000029  0.2523707450000003   F   F   F
  0.6666666269999979  0.6666666870000029  0.2523707450000003   F   F   F
  0.1111111190000003  0.1111111120000032  0.3507902619999967   F   F   F
  0.4444444180000033  0.1111111120000032  0.3507902619999967   F   F   F
  0.7777777909999983  0.1111111120000032  0.3507902619999967   F   F   F
  0.1111111190000003  0.4444444479999987  0.3507902619999967   F   F   F
  0.4444444780000012  0.4444444479999987  0.3507902619999967   F   F   F
  0.7777777310000005  0.4444444479999987  0.3507902619999967   F   F   F
  0.1111111120000032  0.7777777310000005  0.3507902619999967   F   F   F
  0.4444444780000012  0.7777777310000005  0.3507902619999967   F   F   F
  0.7777778510000033  0.7777777310000005  0.3507902619999967   F   F   F
  0.8888865064940078  0.2222270030119856  0.4487481974777554   T   T   T
  0.2218165651380596  0.2218165501380619  0.4485107596377116   T   T   T
  0.5563669297238788  0.2218165501380619  0.4485107596377116   T   T   T
  0.8883943481585596  0.5558027959207177  0.4495395175904915   T   T   T
  0.2218165351380642  0.5563668697238809  0.4485107596377116   T   T   T
  0.5558028559207155  0.5558027959207177  0.4495395175904915   T   T   T
  0.8888865064940078  0.8888865064940078  0.4487481974777554   T   T   T
  0.2222270180119833  0.8888865064940078  0.4487481974777554   T   T   T
  0.5558027959207177  0.8883943481585596  0.4495395175904915   T   T   T
 -0.0000000000000000  0.0000000000000000  0.5471948322156108   T   T   T
  0.3330568942196082  0.9981750936542009  0.5484540163904708   T   T   T
  0.6687680421261933  0.9981750936542009  0.5484540163904708   T   T   T
  0.9981750936542009  0.3330568942196082  0.5484540163904708   T   T   T
  0.6687680421261933  0.3330568942196082  0.5484540163904708   T   T   T
  0.9981750936542009  0.6687680421261933  0.5484540163904708   T   T   T
  0.3330569242196107  0.6687680421261933  0.5484540163904708   T   T   T
  0.6666666269999979  0.6666666870000029  0.5478089825563902   T   T   T
  0.3333333129999971  0.3333333429999996  0.5473449519010094   T   T   T
 
  0.00000000E+00  0.00000000E+00  0.00000000E+00
  0.00000000E+00  0.00000000E+00  0.00000000E+00
  0.00000000E+00  0.00000000E+00  0.00000000E+00
  0.00000000E+00  0.00000000E+00  0.00000000E+00
  0.00000000E+00  0.00000000E+00  0.00000000E+00
  0.00000000E+00  0.00000000E+00  0.00000000E+00
  0.00000000E+00  0.00000000E+00  0.00000000E+00
  0.00000000E+00  0.00000000E+00  0.00000000E+00
  0.00000000E+00  0.00000000E+00  0.00000000E+00
  0.00000000E+00  0.00000000E+00  0.00000000E+00
  0.00000000E+00  0.00000000E+00  0.00000000E+00
  0.00000000E+00  0.00000000E+00  0.00000000E+00
  0.00000000E+00  0.00000000E+00  0.00000000E+00
  0.00000000E+00  0.00000000E+00  0.00000000E+00
  0.00000000E+00  0.00000000E+00  0.00000000E+00
  0.00000000E+00  0.00000000E+00  0.00000000E+00
  0.00000000E+00  0.00000000E+00  0.00000000E+00
  0.00000000E+00  0.00000000E+00  0.00000000E+00
  0.00000000E+00  0.00000000E+00  0.00000000E+00
  0.00000000E+00  0.00000000E+00  0.00000000E+00
  0.00000000E+00  0.00000000E+00  0.00000000E+00
  0.00000000E+00  0.00000000E+00  0.00000000E+00
  0.00000000E+00  0.00000000E+00  0.00000000E+00
  0.00000000E+00  0.00000000E+00  0.00000000E+00
  0.00000000E+00  0.00000000E+00  0.00000000E+00
  0.00000000E+00  0.00000000E+00  0.00000000E+00
  0.00000000E+00  0.00000000E+00  0.00000000E+00
  0.00000000E+00  0.00000000E+00  0.00000000E+00
  0.00000000E+00  0.00000000E+00  0.00000000E+00
  0.00000000E+00  0.00000000E+00  0.00000000E+00
  0.00000000E+00  0.00000000E+00  0.00000000E+00
  0.00000000E+00  0.00000000E+00  0.00000000E+00
  0.00000000E+00  0.00000000E+00  0.00000000E+00
  0.00000000E+00  0.00000000E+00  0.00000000E+00
  0.00000000E+00  0.00000000E+00  0.00000000E+00
  0.00000000E+00  0.00000000E+00  0.00000000E+00
