Ag-Ta-H                                 
   1.00000000000000     
     8.7913665770999998    0.0000000000000000    0.0000000000000000
     4.3956832885999999    7.6135467898000000    0.0000000000000000
     0.0000000000000000    0.0000000000000000   22.1781215668000016
   Ag   Ta   H 
    35     1     1
Selective dynamics
Direct
  0.0000000000000000  0.0000000000000000  0.2381711239999973   F   F   F
  0.3333333129999971  0.0000000000000000  0.2381711239999973   F   F   F
  0.6666666269999979  0.0000000000000000  0.2381711239999973   F   F   F
  0.0000000000000000  0.3333333429999996  0.2381711239999973   F   F   F
  0.3333333129999971  0.3333333429999996  0.2381711239999973   F   F   F
  0.6666666870000029  0.3333333429999996  0.2381711239999973   F   F   F
  0.0000000000000000  0.6666666870000029  0.2381711239999973   F   F   F
  0.3333333129999971  0.6666666870000029  0.2381711239999973   F   F   F
  0.6666666269999979  0.6666666870000029  0.2381711239999973   F   F   F
  0.1111111040000026  0.1111111120000032  0.3460570510000025   F   F   F
  0.4444444479999987  0.1111111120000032  0.3460570510000025   F   F   F
  0.7777777909999983  0.1111111120000032  0.3460570510000025   F   F   F
  0.1111110969999984  0.4444444479999987  0.3460570510000025   F   F   F
  0.4444444180000033  0.4444444479999987  0.3460570510000025   F   F   F
  0.7777777909999983  0.4444444479999987  0.3460570510000025   F   F   F
  0.1111111040000026  0.7777777909999983  0.3460570510000025   F   F   F
  0.4444444479999987  0.7777777909999983  0.3460570510000025   F   F   F
  0.7777777909999983  0.7777777909999983  0.3460570510000025   F   F   F
  0.8887012747242977  0.2225974665513988  0.4540236318948701   F   F   F
  0.2215522205225398  0.2215522355225374  0.4519712252605359   F   F   F
  0.5568954989549226  0.2215522355225374  0.4519712252605359   F   F   F
  0.8883014322922733  0.5558493138538623  0.4540039184892706   F   F   F
  0.2215522355225374  0.5568955589549205  0.4519712252605359   F   F   F
  0.5558493138538623  0.5558493138538623  0.4540039184892706   F   F   F
  0.8887012747242977  0.8887012747242977  0.4540236318948701   F   F   F
  0.2225974365513963  0.8887012747242977  0.4540236318948701   F   F   F
  0.5558492538538644  0.8883014322922733  0.4540039184892706   F   F   F
  0.0000000000000000  0.0000000000000000  0.5617171934594367   F   F   F
  0.3335074893021215  0.0057435738034641  0.5636012494313078   F   F   F
  0.6607488768944094  0.0057435738034641  0.5636012494313078   F   F   F
  0.0057435738034641  0.3335075193021240  0.5636012494313078   F   F   F
  0.6607489368944144  0.3335075193021240  0.5636012494313078   F   F   F
  0.0057435738034641  0.6607489368944144  0.5636012494313078   F   F   F
  0.3335074893021215  0.6607489368944144  0.5636012494313078   F   F   F
  0.6666666269999979  0.6666666870000029  0.5623133474666560   F   F   F
  0.3333333129999971  0.3333333429999996  0.5512784239059059   F   F   F
  0.3333333129999971  0.3333333429999996  0.6313919453099857   T   T   T
 
  0.00000000E+00  0.00000000E+00  0.00000000E+00
  0.00000000E+00  0.00000000E+00  0.00000000E+00
  0.00000000E+00  0.00000000E+00  0.00000000E+00
  0.00000000E+00  0.00000000E+00  0.00000000E+00
  0.00000000E+00  0.00000000E+00  0.00000000E+00
  0.00000000E+00  0.00000000E+00  0.00000000E+00
  0.00000000E+00  0.00000000E+00  0.00000000E+00
  0.00000000E+00  0.00000000E+00  0.00000000E+00
  0.00000000E+00  0.00000000E+00  0.00000000E+00
  0.00000000E+00  0.00000000E+00  0.00000000E+00
  0.00000000E+00  0.00000000E+00  0.00000000E+00
  0.00000000E+00  0.00000000E+00  0.00000000E+00
  0.00000000E+00  0.00000000E+00  0.00000000E+00
  0.00000000E+00  0.00000000E+00  0.00000000E+00
  0.00000000E+00  0.00000000E+00  0.00000000E+00
  0.00000000E+00  0.00000000E+00  0.00000000E+00
  0.00000000E+00  0.00000000E+00  0.00000000E+00
  0.00000000E+00  0.00000000E+00  0.00000000E+00
  0.00000000E+00  0.00000000E+00  0.00000000E+00
  0.00000000E+00  0.00000000E+00  0.00000000E+00
  0.00000000E+00  0.00000000E+00  0.00000000E+00
  0.00000000E+00  0.00000000E+00  0.00000000E+00
  0.00000000E+00  0.00000000E+00  0.00000000E+00
  0.00000000E+00  0.00000000E+00  0.00000000E+00
  0.00000000E+00  0.00000000E+00  0.00000000E+00
  0.00000000E+00  0.00000000E+00  0.00000000E+00
  0.00000000E+00  0.00000000E+00  0.00000000E+00
  0.00000000E+00  0.00000000E+00  0.00000000E+00
  0.00000000E+00  0.00000000E+00  0.00000000E+00
  0.00000000E+00  0.00000000E+00  0.00000000E+00
  0.00000000E+00  0.00000000E+00  0.00000000E+00
  0.00000000E+00  0.00000000E+00  0.00000000E+00
  0.00000000E+00  0.00000000E+00  0.00000000E+00
  0.00000000E+00  0.00000000E+00  0.00000000E+00
  0.00000000E+00  0.00000000E+00  0.00000000E+00
  0.00000000E+00  0.00000000E+00  0.00000000E+00
  0.00000000E+00  0.00000000E+00  0.00000000E+00
