Au-Zr-N2                                
   1.00000000000000     
     8.8135128021000000    0.0000000000000000    0.0000000000000000
     4.4067569092000003    7.6327256898000000    0.0000000000000000
     0.0000000000000000    0.0000000000000000   25.3754948491886161
   Au   Zr   N 
    35     1     2
Selective dynamics
Direct
  0.0000000000000000  0.0000000000000000  0.2080897322550328   F   F   F
  0.3333333429999996  0.0000000000000000  0.2080897322550328   F   F   F
  0.6666666870000029  0.0000000000000000  0.2080897322550328   F   F   F
  0.0000000000000000  0.3333333429999996  0.2080897322550328   F   F   F
  0.3333333129999971  0.3333333429999996  0.2080897322550328   F   F   F
  0.6666666870000029  0.3333333429999996  0.2080897322550328   F   F   F
  0.0000000000000000  0.6666666870000029  0.2080897322550328   F   F   F
  0.3333333429999996  0.6666666870000029  0.2080897322550328   F   F   F
  0.6666666269999979  0.6666666870000029  0.2080897322550328   F   F   F
  0.1111111190000003  0.1111111120000032  0.3026192825536000   F   F   F
  0.4444444180000033  0.1111111120000032  0.3026192825536000   F   F   F
  0.7777777909999983  0.1111111120000032  0.3026192825536000   F   F   F
  0.1111111270000009  0.4444444479999987  0.3026192825536000   F   F   F
  0.4444444780000012  0.4444444479999987  0.3026192825536000   F   F   F
  0.7777777310000005  0.4444444479999987  0.3026192825536000   F   F   F
  0.1111110900000014  0.7777777909999983  0.3026192825536000   F   F   F
  0.4444444479999987  0.7777777909999983  0.3026192825536000   F   F   F
  0.7777778510000033  0.7777777909999983  0.3026192825536000   F   F   F
  0.8889184086334012  0.2221631987331776  0.3969372007096723   F   F   F
  0.2227848346193824  0.2227848196193776  0.3965794921088914   F   F   F
  0.5544303907612331  0.2227848196193776  0.3965794921088914   F   F   F
  0.8878709338258588  0.5560645630870624  0.3969032947745674   F   F   F
  0.2227847896193680  0.5544303907612331  0.3965794921088914   F   F   F
  0.5560645630870624  0.5560645630870624  0.3969032947745674   F   F   F
  0.8889184086334012  0.8889184086334012  0.3969372007096723   F   F   F
  0.2221632287331801  0.8889184086334012  0.3969372007096723   F   F   F
  0.5560645030870575  0.8878709338258588  0.3969032947745674   F   F   F
  0.0000000000000000  0.0000000000000000  0.4925451599860935   F   F   F
  0.3335040881292599  0.0059414237387188  0.4949633088460175   F   F   F
  0.6605545181320309  0.0059414237387188  0.4949633088460175   F   F   F
  0.0059414237387188  0.3335040881292599  0.4949633088460175   F   F   F
  0.6605545181320309  0.3335040881292599  0.4949633088460175   F   F   F
  0.0059414237387188  0.6605545181320309  0.4949633088460175   F   F   F
  0.3335040881292599  0.6605545181320309  0.4949633088460175   F   F   F
  0.6666666269999979  0.6666666870000029  0.4928626092878474   F   F   F
  0.3333333129999971  0.3333333429999996  0.4876424488069873   F   F   F
  0.2687486938901099  0.3360711115575288  0.6456241244609561   T   T   T
  0.3951801635523623  0.3360711115575288  0.6456241244609561   T   T   T
 
  0.00000000E+00  0.00000000E+00  0.00000000E+00
  0.00000000E+00  0.00000000E+00  0.00000000E+00
  0.00000000E+00  0.00000000E+00  0.00000000E+00
  0.00000000E+00  0.00000000E+00  0.00000000E+00
  0.00000000E+00  0.00000000E+00  0.00000000E+00
  0.00000000E+00  0.00000000E+00  0.00000000E+00
  0.00000000E+00  0.00000000E+00  0.00000000E+00
  0.00000000E+00  0.00000000E+00  0.00000000E+00
  0.00000000E+00  0.00000000E+00  0.00000000E+00
  0.00000000E+00  0.00000000E+00  0.00000000E+00
  0.00000000E+00  0.00000000E+00  0.00000000E+00
  0.00000000E+00  0.00000000E+00  0.00000000E+00
  0.00000000E+00  0.00000000E+00  0.00000000E+00
  0.00000000E+00  0.00000000E+00  0.00000000E+00
  0.00000000E+00  0.00000000E+00  0.00000000E+00
  0.00000000E+00  0.00000000E+00  0.00000000E+00
  0.00000000E+00  0.00000000E+00  0.00000000E+00
  0.00000000E+00  0.00000000E+00  0.00000000E+00
  0.00000000E+00  0.00000000E+00  0.00000000E+00
  0.00000000E+00  0.00000000E+00  0.00000000E+00
  0.00000000E+00  0.00000000E+00  0.00000000E+00
  0.00000000E+00  0.00000000E+00  0.00000000E+00
  0.00000000E+00  0.00000000E+00  0.00000000E+00
  0.00000000E+00  0.00000000E+00  0.00000000E+00
  0.00000000E+00  0.00000000E+00  0.00000000E+00
  0.00000000E+00  0.00000000E+00  0.00000000E+00
  0.00000000E+00  0.00000000E+00  0.00000000E+00
  0.00000000E+00  0.00000000E+00  0.00000000E+00
  0.00000000E+00  0.00000000E+00  0.00000000E+00
  0.00000000E+00  0.00000000E+00  0.00000000E+00
  0.00000000E+00  0.00000000E+00  0.00000000E+00
  0.00000000E+00  0.00000000E+00  0.00000000E+00
  0.00000000E+00  0.00000000E+00  0.00000000E+00
  0.00000000E+00  0.00000000E+00  0.00000000E+00
  0.00000000E+00  0.00000000E+00  0.00000000E+00
  0.00000000E+00  0.00000000E+00  0.00000000E+00
  0.00000000E+00  0.00000000E+00  0.00000000E+00
  0.00000000E+00  0.00000000E+00  0.00000000E+00
