Au-Ir-N2                                
   1.00000000000000     
     8.8135128021000000    0.0000000000000000    0.0000000000000000
     4.4067569092000003    7.6327256898000000    0.0000000000000000
     0.0000000000000000    0.0000000000000000   25.5758278198741245
   Au   Ir   N 
    35     1     2
Selective dynamics
Direct
  0.0000000000000000  0.0000000000000000  0.2064597856302228   F   F   F
  0.3333333429999996  0.0000000000000000  0.2064597856302228   F   F   F
  0.6666666870000029  0.0000000000000000  0.2064597856302228   F   F   F
  0.0000000000000000  0.3333333429999996  0.2064597856302228   F   F   F
  0.3333333129999971  0.3333333429999996  0.2064597856302228   F   F   F
  0.6666666870000029  0.3333333429999996  0.2064597856302228   F   F   F
  0.0000000000000000  0.6666666870000029  0.2064597856302228   F   F   F
  0.3333333429999996  0.6666666870000029  0.2064597856302228   F   F   F
  0.6666666269999979  0.6666666870000029  0.2064597856302228   F   F   F
  0.1111111190000003  0.1111111120000032  0.3002488951593776   F   F   F
  0.4444444180000033  0.1111111120000032  0.3002488951593776   F   F   F
  0.7777777909999983  0.1111111120000032  0.3002488951593776   F   F   F
  0.1111111270000009  0.4444444479999987  0.3002488951593776   F   F   F
  0.4444444780000012  0.4444444479999987  0.3002488951593776   F   F   F
  0.7777777310000005  0.4444444479999987  0.3002488951593776   F   F   F
  0.1111110900000014  0.7777777909999983  0.3002488951593776   F   F   F
  0.4444444479999987  0.7777777909999983  0.3002488951593776   F   F   F
  0.7777778510000033  0.7777777909999983  0.3002488951593776   F   F   F
  0.8886126423151381  0.2227747313697321  0.3941723777922093   F   F   F
  0.2216648805198602  0.2216648655198625  0.3924868714336185   F   F   F
  0.5566702989602632  0.2216648655198625  0.3924868714336185   F   F   F
  0.8866935878123670  0.5566532360938226  0.3933887038441313   F   F   F
  0.2216648355198600  0.5566702989602632  0.3924868714336185   F   F   F
  0.5566532360938226  0.5566532360938226  0.3933887038441313   F   F   F
  0.8886126423151381  0.8886126423151381  0.3941723777922093   F   F   F
  0.2227747613697275  0.8886126423151381  0.3941723777922093   F   F   F
  0.5566531760938176  0.8866935878123670  0.3933887038441313   F   F   F
  0.0000000000000000  0.0000000000000000  0.4885937094933368   F   F   F
  0.3333141867134728  0.0052536554553768  0.4880812527025071   F   F   F
  0.6614321878311600  0.0052536554553768  0.4880812527025071   F   F   F
  0.0052536554553768  0.3333141867134728  0.4880812527025071   F   F   F
  0.6614321878311600  0.3333141867134728  0.4880812527025071   F   F   F
  0.0052536554553768  0.6614321878311600  0.4880812527025071   F   F   F
  0.3333141867134728  0.6614321878311600  0.4880812527025071   F   F   F
  0.6666666269999979  0.6666666870000029  0.4884187730490197   F   F   F
  0.3333333129999971  0.3333333429999996  0.4784390492253081   F   F   F
  0.2718324097778032  0.3299683085337969  0.6419288333671213   T   T   T
  0.3981992506884009  0.3299683085337969  0.6419288333671213   T   T   T
 
  0.00000000E+00  0.00000000E+00  0.00000000E+00
  0.00000000E+00  0.00000000E+00  0.00000000E+00
  0.00000000E+00  0.00000000E+00  0.00000000E+00
  0.00000000E+00  0.00000000E+00  0.00000000E+00
  0.00000000E+00  0.00000000E+00  0.00000000E+00
  0.00000000E+00  0.00000000E+00  0.00000000E+00
  0.00000000E+00  0.00000000E+00  0.00000000E+00
  0.00000000E+00  0.00000000E+00  0.00000000E+00
  0.00000000E+00  0.00000000E+00  0.00000000E+00
  0.00000000E+00  0.00000000E+00  0.00000000E+00
  0.00000000E+00  0.00000000E+00  0.00000000E+00
  0.00000000E+00  0.00000000E+00  0.00000000E+00
  0.00000000E+00  0.00000000E+00  0.00000000E+00
  0.00000000E+00  0.00000000E+00  0.00000000E+00
  0.00000000E+00  0.00000000E+00  0.00000000E+00
  0.00000000E+00  0.00000000E+00  0.00000000E+00
  0.00000000E+00  0.00000000E+00  0.00000000E+00
  0.00000000E+00  0.00000000E+00  0.00000000E+00
  0.00000000E+00  0.00000000E+00  0.00000000E+00
  0.00000000E+00  0.00000000E+00  0.00000000E+00
  0.00000000E+00  0.00000000E+00  0.00000000E+00
  0.00000000E+00  0.00000000E+00  0.00000000E+00
  0.00000000E+00  0.00000000E+00  0.00000000E+00
  0.00000000E+00  0.00000000E+00  0.00000000E+00
  0.00000000E+00  0.00000000E+00  0.00000000E+00
  0.00000000E+00  0.00000000E+00  0.00000000E+00
  0.00000000E+00  0.00000000E+00  0.00000000E+00
  0.00000000E+00  0.00000000E+00  0.00000000E+00
  0.00000000E+00  0.00000000E+00  0.00000000E+00
  0.00000000E+00  0.00000000E+00  0.00000000E+00
  0.00000000E+00  0.00000000E+00  0.00000000E+00
  0.00000000E+00  0.00000000E+00  0.00000000E+00
  0.00000000E+00  0.00000000E+00  0.00000000E+00
  0.00000000E+00  0.00000000E+00  0.00000000E+00
  0.00000000E+00  0.00000000E+00  0.00000000E+00
  0.00000000E+00  0.00000000E+00  0.00000000E+00
  0.00000000E+00  0.00000000E+00  0.00000000E+00
  0.00000000E+00  0.00000000E+00  0.00000000E+00
