Au-Ti-CO2                               
   1.00000000000000     
     8.8135128021000000    0.0000000000000000    0.0000000000000000
     4.4067569092000003    7.6327256898000000    0.0000000000000000
     0.0000000000000000    0.0000000000000000   24.3691142039813293
   Au   Ti   C    O 
    35     1     1     2
Selective dynamics
Direct
  0.0000000000000000  0.0000000000000000  0.2166832936481526   F   F   F
  0.3333333429999996  0.0000000000000000  0.2166832936481526   F   F   F
  0.6666666870000029  0.0000000000000000  0.2166832936481526   F   F   F
  0.0000000000000000  0.3333333429999996  0.2166832936481526   F   F   F
  0.3333333129999971  0.3333333429999996  0.2166832936481526   F   F   F
  0.6666666870000029  0.3333333429999996  0.2166832936481526   F   F   F
  0.0000000000000000  0.6666666870000029  0.2166832936481526   F   F   F
  0.3333333429999996  0.6666666870000029  0.2166832936481526   F   F   F
  0.6666666269999979  0.6666666870000029  0.2166832936481526   F   F   F
  0.1111111190000003  0.1111111120000032  0.3151166670001118   F   F   F
  0.4444444180000033  0.1111111120000032  0.3151166670001118   F   F   F
  0.7777777909999983  0.1111111120000032  0.3151166670001118   F   F   F
  0.1111111270000009  0.4444444479999987  0.3151166670001118   F   F   F
  0.4444444780000012  0.4444444479999987  0.3151166670001118   F   F   F
  0.7777777310000005  0.4444444479999987  0.3151166670001118   F   F   F
  0.1111110900000014  0.7777777909999983  0.3151166670001118   F   F   F
  0.4444444479999987  0.7777777909999983  0.3151166670001118   F   F   F
  0.7777778510000033  0.7777777909999983  0.3151166670001118   F   F   F
  0.8888903351169191  0.2222193457661632  0.4133638357668872   F   F   F
  0.2231041335832629  0.2231041185832581  0.4129818915421097   F   F   F
  0.5537917928334792  0.2231041185832581  0.4129818915421097   F   F   F
  0.8872240747251894  0.5563879926373971  0.4130635133252198   F   F   F
  0.2231040885832627  0.5537917928334792  0.4129818915421097   F   F   F
  0.5563879926373971  0.5563879926373971  0.4130635133252198   F   F   F
  0.8888903351169191  0.8888903351169191  0.4133638357668872   F   F   F
  0.2222193757661728  0.8888903351169191  0.4133638357668872   F   F   F
  0.5563879326374135  0.8872240747251894  0.4130635133252198   F   F   F
  0.0000000000000000  0.0000000000000000  0.5125394191890535   F   F   F
  0.3337462504927515  0.0089522297070417  0.5141613458383532   F   F   F
  0.6573015498002235  0.0089522297070417  0.5141613458383532   F   F   F
  0.0089522297070417  0.3337462504927515  0.5141613458383532   F   F   F
  0.6573015498002235  0.3337462504927515  0.5141613458383532   F   F   F
  0.0089522297070417  0.6573015498002235  0.5141613458383532   F   F   F
  0.3337462504927515  0.6573015498002235  0.5141613458383532   F   F   F
  0.6666666269999979  0.6666666870000029  0.5130186418209917   F   F   F
  0.3333333129999971  0.3333333429999996  0.5029888365554598   F   F   F
  0.3389133078117581  0.3334853776991622  0.6683417033099843   T   T   T
  0.2054629296618984  0.3333905778306416  0.6671768988148727   T   T   T
  0.4724406486928814  0.3335225356933549  0.6688188919317284   T   T   T
 
  0.00000000E+00  0.00000000E+00  0.00000000E+00
  0.00000000E+00  0.00000000E+00  0.00000000E+00
  0.00000000E+00  0.00000000E+00  0.00000000E+00
  0.00000000E+00  0.00000000E+00  0.00000000E+00
  0.00000000E+00  0.00000000E+00  0.00000000E+00
  0.00000000E+00  0.00000000E+00  0.00000000E+00
  0.00000000E+00  0.00000000E+00  0.00000000E+00
  0.00000000E+00  0.00000000E+00  0.00000000E+00
  0.00000000E+00  0.00000000E+00  0.00000000E+00
  0.00000000E+00  0.00000000E+00  0.00000000E+00
  0.00000000E+00  0.00000000E+00  0.00000000E+00
  0.00000000E+00  0.00000000E+00  0.00000000E+00
  0.00000000E+00  0.00000000E+00  0.00000000E+00
  0.00000000E+00  0.00000000E+00  0.00000000E+00
  0.00000000E+00  0.00000000E+00  0.00000000E+00
  0.00000000E+00  0.00000000E+00  0.00000000E+00
  0.00000000E+00  0.00000000E+00  0.00000000E+00
  0.00000000E+00  0.00000000E+00  0.00000000E+00
  0.00000000E+00  0.00000000E+00  0.00000000E+00
  0.00000000E+00  0.00000000E+00  0.00000000E+00
  0.00000000E+00  0.00000000E+00  0.00000000E+00
  0.00000000E+00  0.00000000E+00  0.00000000E+00
  0.00000000E+00  0.00000000E+00  0.00000000E+00
  0.00000000E+00  0.00000000E+00  0.00000000E+00
  0.00000000E+00  0.00000000E+00  0.00000000E+00
  0.00000000E+00  0.00000000E+00  0.00000000E+00
  0.00000000E+00  0.00000000E+00  0.00000000E+00
  0.00000000E+00  0.00000000E+00  0.00000000E+00
  0.00000000E+00  0.00000000E+00  0.00000000E+00
  0.00000000E+00  0.00000000E+00  0.00000000E+00
  0.00000000E+00  0.00000000E+00  0.00000000E+00
  0.00000000E+00  0.00000000E+00  0.00000000E+00
  0.00000000E+00  0.00000000E+00  0.00000000E+00
  0.00000000E+00  0.00000000E+00  0.00000000E+00
  0.00000000E+00  0.00000000E+00  0.00000000E+00
  0.00000000E+00  0.00000000E+00  0.00000000E+00
  0.00000000E+00  0.00000000E+00  0.00000000E+00
  0.00000000E+00  0.00000000E+00  0.00000000E+00
  0.00000000E+00  0.00000000E+00  0.00000000E+00
