Au-Ti-CO                                
   1.00000000000000     
     8.8135128021000000    0.0000000000000000    0.0000000000000000
     4.4067569092000003    7.6327256898000000    0.0000000000000000
     0.0000000000000000    0.0000000000000000   25.2241857282172504
   Au   Ti   C    O 
    35     1     1     1
Selective dynamics
Direct
  0.0000000000000000  0.0000000000000000  0.2093379737170196   F   F   F
  0.3333333429999996  0.0000000000000000  0.2093379737170196   F   F   F
  0.6666666870000029  0.0000000000000000  0.2093379737170196   F   F   F
  0.0000000000000000  0.3333333429999996  0.2093379737170196   F   F   F
  0.3333333129999971  0.3333333429999996  0.2093379737170196   F   F   F
  0.6666666870000029  0.3333333429999996  0.2093379737170196   F   F   F
  0.0000000000000000  0.6666666870000029  0.2093379737170196   F   F   F
  0.3333333429999996  0.6666666870000029  0.2093379737170196   F   F   F
  0.6666666269999979  0.6666666870000029  0.2093379737170196   F   F   F
  0.1111111190000003  0.1111111120000032  0.3044345664293715   F   F   F
  0.4444444180000033  0.1111111120000032  0.3044345664293715   F   F   F
  0.7777777909999983  0.1111111120000032  0.3044345664293715   F   F   F
  0.1111111270000009  0.4444444479999987  0.3044345664293715   F   F   F
  0.4444444780000012  0.4444444479999987  0.3044345664293715   F   F   F
  0.7777777310000005  0.4444444479999987  0.3044345664293715   F   F   F
  0.1111110900000014  0.7777777909999983  0.3044345664293715   F   F   F
  0.4444444479999987  0.7777777909999983  0.3044345664293715   F   F   F
  0.7777778510000033  0.7777777909999983  0.3044345664293715   F   F   F
  0.8888903351169191  0.2222193457661632  0.3993512666825296   F   F   F
  0.2231041335832629  0.2231041185832581  0.3989822699373704   F   F   F
  0.5537917928334792  0.2231041185832581  0.3989822699373704   F   F   F
  0.8872240747251894  0.5563879926373971  0.3990611248338425   F   F   F
  0.2231040885832627  0.5537917928334792  0.3989822699373704   F   F   F
  0.5563879926373971  0.5563879926373971  0.3990611248338425   F   F   F
  0.8888903351169191  0.8888903351169191  0.3993512666825296   F   F   F
  0.2222193757661728  0.8888903351169191  0.3993512666825296   F   F   F
  0.5563879326374135  0.8872240747251894  0.3990611248338425   F   F   F
  0.0000000000000000  0.0000000000000000  0.4951649093785377   F   F   F
  0.3337462504927515  0.0089522297070417  0.4967318545387585   F   F   F
  0.6573015498002235  0.0089522297070417  0.4967318545387585   F   F   F
  0.0089522297070417  0.3337462504927515  0.4967318545387585   F   F   F
  0.6573015498002235  0.3337462504927515  0.4967318545387585   F   F   F
  0.0089522297070417  0.6573015498002235  0.4967318545387585   F   F   F
  0.3337462504927515  0.6573015498002235  0.4967318545387585   F   F   F
  0.6666666269999979  0.6666666870000029  0.4956278869022910   F   F   F
  0.3333333129999971  0.3333333429999996  0.4859380807538187   F   F   F
  0.3333333129999971  0.3333333429999996  0.5693336136983191   T   T   T
  0.3333333129999971  0.3333333429999996  0.6151881786148223   T   T   T
 
  0.00000000E+00  0.00000000E+00  0.00000000E+00
  0.00000000E+00  0.00000000E+00  0.00000000E+00
  0.00000000E+00  0.00000000E+00  0.00000000E+00
  0.00000000E+00  0.00000000E+00  0.00000000E+00
  0.00000000E+00  0.00000000E+00  0.00000000E+00
  0.00000000E+00  0.00000000E+00  0.00000000E+00
  0.00000000E+00  0.00000000E+00  0.00000000E+00
  0.00000000E+00  0.00000000E+00  0.00000000E+00
  0.00000000E+00  0.00000000E+00  0.00000000E+00
  0.00000000E+00  0.00000000E+00  0.00000000E+00
  0.00000000E+00  0.00000000E+00  0.00000000E+00
  0.00000000E+00  0.00000000E+00  0.00000000E+00
  0.00000000E+00  0.00000000E+00  0.00000000E+00
  0.00000000E+00  0.00000000E+00  0.00000000E+00
  0.00000000E+00  0.00000000E+00  0.00000000E+00
  0.00000000E+00  0.00000000E+00  0.00000000E+00
  0.00000000E+00  0.00000000E+00  0.00000000E+00
  0.00000000E+00  0.00000000E+00  0.00000000E+00
  0.00000000E+00  0.00000000E+00  0.00000000E+00
  0.00000000E+00  0.00000000E+00  0.00000000E+00
  0.00000000E+00  0.00000000E+00  0.00000000E+00
  0.00000000E+00  0.00000000E+00  0.00000000E+00
  0.00000000E+00  0.00000000E+00  0.00000000E+00
  0.00000000E+00  0.00000000E+00  0.00000000E+00
  0.00000000E+00  0.00000000E+00  0.00000000E+00
  0.00000000E+00  0.00000000E+00  0.00000000E+00
  0.00000000E+00  0.00000000E+00  0.00000000E+00
  0.00000000E+00  0.00000000E+00  0.00000000E+00
  0.00000000E+00  0.00000000E+00  0.00000000E+00
  0.00000000E+00  0.00000000E+00  0.00000000E+00
  0.00000000E+00  0.00000000E+00  0.00000000E+00
  0.00000000E+00  0.00000000E+00  0.00000000E+00
  0.00000000E+00  0.00000000E+00  0.00000000E+00
  0.00000000E+00  0.00000000E+00  0.00000000E+00
  0.00000000E+00  0.00000000E+00  0.00000000E+00
  0.00000000E+00  0.00000000E+00  0.00000000E+00
  0.00000000E+00  0.00000000E+00  0.00000000E+00
  0.00000000E+00  0.00000000E+00  0.00000000E+00
