Au-Nb-CO2                               
   1.00000000000000     
     8.8135128021000000    0.0000000000000000    0.0000000000000000
     4.4067569092000003    7.6327256898000000    0.0000000000000000
     0.0000000000000000    0.0000000000000000   25.9576421668498227
   Au   Nb   C    O 
    35     1     1     2
Selective dynamics
Direct
  0.0000000000000000  0.0000000000000000  0.2034229416934465   F   F   F
  0.3333333429999996  0.0000000000000000  0.2034229416934465   F   F   F
  0.6666666870000029  0.0000000000000000  0.2034229416934465   F   F   F
  0.0000000000000000  0.3333333429999996  0.2034229416934465   F   F   F
  0.3333333129999971  0.3333333429999996  0.2034229416934465   F   F   F
  0.6666666870000029  0.3333333429999996  0.2034229416934465   F   F   F
  0.0000000000000000  0.6666666870000029  0.2034229416934465   F   F   F
  0.3333333429999996  0.6666666870000029  0.2034229416934465   F   F   F
  0.6666666269999979  0.6666666870000029  0.2034229416934465   F   F   F
  0.1111111190000003  0.1111111120000032  0.2958324949679181   F   F   F
  0.4444444180000033  0.1111111120000032  0.2958324949679181   F   F   F
  0.7777777909999983  0.1111111120000032  0.2958324949679181   F   F   F
  0.1111111270000009  0.4444444479999987  0.2958324949679181   F   F   F
  0.4444444780000012  0.4444444479999987  0.2958324949679181   F   F   F
  0.7777777310000005  0.4444444479999987  0.2958324949679181   F   F   F
  0.1111110900000014  0.7777777909999983  0.2958324949679181   F   F   F
  0.4444444479999987  0.7777777909999983  0.2958324949679181   F   F   F
  0.7777778510000033  0.7777777909999983  0.2958324949679181   F   F   F
  0.8886180228257601  0.2227639703484670  0.3885939677566412   F   F   F
  0.2220098510847492  0.2220098360847516  0.3870676848465777   F   F   F
  0.5559803578304994  0.2220098360847516  0.3870676848465777   F   F   F
  0.8866699189578924  0.5566650705210492  0.3878969717521414   F   F   F
  0.2220098060847491  0.5559803578304994  0.3870676848465777   F   F   F
  0.5566650705210492  0.5566650705210492  0.3878969717521414   F   F   F
  0.8886180228257601  0.8886180228257601  0.3885939677566412   F   F   F
  0.2227640003484765  0.8886180228257601  0.3885939677566412   F   F   F
  0.5566650105210513  0.8866699189578924  0.3878969717521414   F   F   F
  0.0000000000000000  0.0000000000000000  0.4815316764850408   F   F   F
  0.3337457840917821  0.0091833038679709  0.4837298160298573   F   F   F
  0.6570709420402565  0.0091833038679709  0.4837298160298573   F   F   F
  0.0091833038679709  0.3337457840917821  0.4837298160298573   F   F   F
  0.6570709420402565  0.3337457840917821  0.4837298160298573   F   F   F
  0.0091833038679709  0.6570709420402565  0.4837298160298573   F   F   F
  0.3337457840917821  0.6570709420402565  0.4837298160298573   F   F   F
  0.6666666269999979  0.6666666870000029  0.4817455199318772   F   F   F
  0.3333333129999971  0.3333333429999996  0.4716983688272123   F   F   F
  0.3439310353421324  0.3433998460914472  0.6366466889317098   T   T   T
  0.2058651922419465  0.3540514837076141  0.6328682919108677   T   T   T
  0.4819984863529289  0.3326817860786789  0.6401130641403724   T   T   T
 
  0.00000000E+00  0.00000000E+00  0.00000000E+00
  0.00000000E+00  0.00000000E+00  0.00000000E+00
  0.00000000E+00  0.00000000E+00  0.00000000E+00
  0.00000000E+00  0.00000000E+00  0.00000000E+00
  0.00000000E+00  0.00000000E+00  0.00000000E+00
  0.00000000E+00  0.00000000E+00  0.00000000E+00
  0.00000000E+00  0.00000000E+00  0.00000000E+00
  0.00000000E+00  0.00000000E+00  0.00000000E+00
  0.00000000E+00  0.00000000E+00  0.00000000E+00
  0.00000000E+00  0.00000000E+00  0.00000000E+00
  0.00000000E+00  0.00000000E+00  0.00000000E+00
  0.00000000E+00  0.00000000E+00  0.00000000E+00
  0.00000000E+00  0.00000000E+00  0.00000000E+00
  0.00000000E+00  0.00000000E+00  0.00000000E+00
  0.00000000E+00  0.00000000E+00  0.00000000E+00
  0.00000000E+00  0.00000000E+00  0.00000000E+00
  0.00000000E+00  0.00000000E+00  0.00000000E+00
  0.00000000E+00  0.00000000E+00  0.00000000E+00
  0.00000000E+00  0.00000000E+00  0.00000000E+00
  0.00000000E+00  0.00000000E+00  0.00000000E+00
  0.00000000E+00  0.00000000E+00  0.00000000E+00
  0.00000000E+00  0.00000000E+00  0.00000000E+00
  0.00000000E+00  0.00000000E+00  0.00000000E+00
  0.00000000E+00  0.00000000E+00  0.00000000E+00
  0.00000000E+00  0.00000000E+00  0.00000000E+00
  0.00000000E+00  0.00000000E+00  0.00000000E+00
  0.00000000E+00  0.00000000E+00  0.00000000E+00
  0.00000000E+00  0.00000000E+00  0.00000000E+00
  0.00000000E+00  0.00000000E+00  0.00000000E+00
  0.00000000E+00  0.00000000E+00  0.00000000E+00
  0.00000000E+00  0.00000000E+00  0.00000000E+00
  0.00000000E+00  0.00000000E+00  0.00000000E+00
  0.00000000E+00  0.00000000E+00  0.00000000E+00
  0.00000000E+00  0.00000000E+00  0.00000000E+00
  0.00000000E+00  0.00000000E+00  0.00000000E+00
  0.00000000E+00  0.00000000E+00  0.00000000E+00
  0.00000000E+00  0.00000000E+00  0.00000000E+00
  0.00000000E+00  0.00000000E+00  0.00000000E+00
  0.00000000E+00  0.00000000E+00  0.00000000E+00
