Ag-Ru-N2                                
   1.00000000000000     
     8.7913665770999998    0.0000000000000000    0.0000000000000000
     4.3956832885999999    7.6135467898000000    0.0000000000000000
     0.0000000000000000    0.0000000000000000   24.2277937441752869
   Ag   Ru   N 
    35     1     2
Selective dynamics
Direct
  0.0000000000000000  0.0000000000000000  0.2180218387835424   F   F   F
  0.3333333129999971  0.0000000000000000  0.2180218387835424   F   F   F
  0.6666666269999979  0.0000000000000000  0.2180218387835424   F   F   F
  0.0000000000000000  0.3333333429999996  0.2180218387835424   F   F   F
  0.3333333129999971  0.3333333429999996  0.2180218387835424   F   F   F
  0.6666666870000029  0.3333333429999996  0.2180218387835424   F   F   F
  0.0000000000000000  0.6666666870000029  0.2180218387835424   F   F   F
  0.3333333129999971  0.6666666870000029  0.2180218387835424   F   F   F
  0.6666666269999979  0.6666666870000029  0.2180218387835424   F   F   F
  0.1111111040000026  0.1111111120000032  0.3167806126784285   F   F   F
  0.4444444479999987  0.1111111120000032  0.3167806126784285   F   F   F
  0.7777777909999983  0.1111111120000032  0.3167806126784285   F   F   F
  0.1111110969999984  0.4444444479999987  0.3167806126784285   F   F   F
  0.4444444180000033  0.4444444479999987  0.3167806126784285   F   F   F
  0.7777777909999983  0.4444444479999987  0.3167806126784285   F   F   F
  0.1111111040000026  0.7777777909999983  0.3167806126784285   F   F   F
  0.4444444479999987  0.7777777909999983  0.3167806126784285   F   F   F
  0.7777777909999983  0.7777777909999983  0.3167806126784285   F   F   F
  0.8887181385848066  0.2225637388303667  0.4153419238362801   F   F   F
  0.2226822122733694  0.2226822272733600  0.4140102566164074   F   F   F
  0.5546355154532634  0.2226822272733600  0.4140102566164074   F   F   F
  0.8884621063534510  0.5557689768232734  0.4150409210322223   F   F   F
  0.2226822272733600  0.5546355754532613  0.4140102566164074   F   F   F
  0.5557689768232734  0.5557689768232734  0.4150409210322223   F   F   F
  0.8887181385848066  0.8887181385848066  0.4153419238362801   F   F   F
  0.2225637088303714  0.8887181385848066  0.4153419238362801   F   F   F
  0.5557689168232685  0.8884621063534510  0.4150409210322223   F   F   F
  0.0000000000000000  0.0000000000000000  0.5127992794274405   F   F   F
  0.3330860673296812  0.0058221368006315  0.5133558782852106   F   F   F
  0.6610917358696895  0.0058221368006315  0.5133558782852106   F   F   F
  0.0058221368006315  0.3330860973296765  0.5133558782852106   F   F   F
  0.6610917958696874  0.3330860973296765  0.5133558782852106   F   F   F
  0.0058221368006315  0.6610917958696874  0.5133558782852106   F   F   F
  0.3330860673296812  0.6610917958696874  0.5133558782852106   F   F   F
  0.6666666269999979  0.6666666870000029  0.5126627991777610   F   F   F
  0.3333333129999971  0.3333333429999996  0.5048151824201526   F   F   F
  0.2697782371148207  0.3289594532034528  0.5940694425988724   T   T   T
  0.4012622786817275  0.3289594532034528  0.5940694425988724   T   T   T
 
  0.00000000E+00  0.00000000E+00  0.00000000E+00
  0.00000000E+00  0.00000000E+00  0.00000000E+00
  0.00000000E+00  0.00000000E+00  0.00000000E+00
  0.00000000E+00  0.00000000E+00  0.00000000E+00
  0.00000000E+00  0.00000000E+00  0.00000000E+00
  0.00000000E+00  0.00000000E+00  0.00000000E+00
  0.00000000E+00  0.00000000E+00  0.00000000E+00
  0.00000000E+00  0.00000000E+00  0.00000000E+00
  0.00000000E+00  0.00000000E+00  0.00000000E+00
  0.00000000E+00  0.00000000E+00  0.00000000E+00
  0.00000000E+00  0.00000000E+00  0.00000000E+00
  0.00000000E+00  0.00000000E+00  0.00000000E+00
  0.00000000E+00  0.00000000E+00  0.00000000E+00
  0.00000000E+00  0.00000000E+00  0.00000000E+00
  0.00000000E+00  0.00000000E+00  0.00000000E+00
  0.00000000E+00  0.00000000E+00  0.00000000E+00
  0.00000000E+00  0.00000000E+00  0.00000000E+00
  0.00000000E+00  0.00000000E+00  0.00000000E+00
  0.00000000E+00  0.00000000E+00  0.00000000E+00
  0.00000000E+00  0.00000000E+00  0.00000000E+00
  0.00000000E+00  0.00000000E+00  0.00000000E+00
  0.00000000E+00  0.00000000E+00  0.00000000E+00
  0.00000000E+00  0.00000000E+00  0.00000000E+00
  0.00000000E+00  0.00000000E+00  0.00000000E+00
  0.00000000E+00  0.00000000E+00  0.00000000E+00
  0.00000000E+00  0.00000000E+00  0.00000000E+00
  0.00000000E+00  0.00000000E+00  0.00000000E+00
  0.00000000E+00  0.00000000E+00  0.00000000E+00
  0.00000000E+00  0.00000000E+00  0.00000000E+00
  0.00000000E+00  0.00000000E+00  0.00000000E+00
  0.00000000E+00  0.00000000E+00  0.00000000E+00
  0.00000000E+00  0.00000000E+00  0.00000000E+00
  0.00000000E+00  0.00000000E+00  0.00000000E+00
  0.00000000E+00  0.00000000E+00  0.00000000E+00
  0.00000000E+00  0.00000000E+00  0.00000000E+00
  0.00000000E+00  0.00000000E+00  0.00000000E+00
  0.00000000E+00  0.00000000E+00  0.00000000E+00
  0.00000000E+00  0.00000000E+00  0.00000000E+00
