Ag-Zr-H2                                
   1.00000000000000     
     8.7913665770999998    0.0000000000000000    0.0000000000000000
     4.3956832885999999    7.6135467898000000    0.0000000000000000
     0.0000000000000000    0.0000000000000000   24.0060125285072843
   Ag   Zr   H 
    35     1     2
Selective dynamics
Direct
  0.0000000000000000  0.0000000000000000  0.2200360486982476   F   F   F
  0.3333333129999971  0.0000000000000000  0.2200360486982476   F   F   F
  0.6666666269999979  0.0000000000000000  0.2200360486982476   F   F   F
  0.0000000000000000  0.3333333429999996  0.2200360486982476   F   F   F
  0.3333333129999971  0.3333333429999996  0.2200360486982476   F   F   F
  0.6666666870000029  0.3333333429999996  0.2200360486982476   F   F   F
  0.0000000000000000  0.6666666870000029  0.2200360486982476   F   F   F
  0.3333333129999971  0.6666666870000029  0.2200360486982476   F   F   F
  0.6666666269999979  0.6666666870000029  0.2200360486982476   F   F   F
  0.1111111040000026  0.1111111120000032  0.3197072123915774   F   F   F
  0.4444444479999987  0.1111111120000032  0.3197072123915774   F   F   F
  0.7777777909999983  0.1111111120000032  0.3197072123915774   F   F   F
  0.1111110969999984  0.4444444479999987  0.3197072123915774   F   F   F
  0.4444444180000033  0.4444444479999987  0.3197072123915774   F   F   F
  0.7777777909999983  0.4444444479999987  0.3197072123915774   F   F   F
  0.1111111040000026  0.7777777909999983  0.3197072123915774   F   F   F
  0.4444444479999987  0.7777777909999983  0.3197072123915774   F   F   F
  0.7777777909999983  0.7777777909999983  0.3197072123915774   F   F   F
  0.8889992511404401  0.2220015137190998  0.4186160413036788   F   F   F
  0.2222766738212272  0.2222766888212320  0.4183308741131526   F   F   F
  0.5554465923575265  0.2222766888212320  0.4183308741131526   F   F   F
  0.8888612657116326  0.5555693971441826  0.4194047475373779   F   F   F
  0.2222766888212320  0.5554466523575385  0.4183308741131526   F   F   F
  0.5555693971441826  0.5555693971441826  0.4194047475373779   F   F   F
  0.8889992511404401  0.8889992511404401  0.4186160413036788   F   F   F
  0.2220014837190973  0.8889992511404401  0.4186160413036788   F   F   F
  0.5555693371441777  0.8888612657116326  0.4194047475373779   F   F   F
  0.0000000000000000  0.0000000000000000  0.5184905600371579   F   F   F
  0.3335575194096165  0.0001551561684892  0.5200162392663117   F   F   F
  0.6662872644218893  0.0001551561684892  0.5200162392663117   F   F   F
  0.0001551561684892  0.3335575494096332  0.5200162392663117   F   F   F
  0.6662873244218872  0.3335575494096332  0.5200162392663117   F   F   F
  0.0001551561684892  0.6662873244218872  0.5200162392663117   F   F   F
  0.3335575194096165  0.6662873244218872  0.5200162392663117   F   F   F
  0.6666666269999979  0.6666666870000029  0.5196829109754972   F   F   F
  0.3333333129999971  0.3333333429999996  0.5176345388653303   F   F   F
  0.2868245818517963  0.3353563771209878  0.6062740331505339   T   T   T
  0.3778190100272099  0.3353563771209878  0.6062740331505339   T   T   T
 
  0.00000000E+00  0.00000000E+00  0.00000000E+00
  0.00000000E+00  0.00000000E+00  0.00000000E+00
  0.00000000E+00  0.00000000E+00  0.00000000E+00
  0.00000000E+00  0.00000000E+00  0.00000000E+00
  0.00000000E+00  0.00000000E+00  0.00000000E+00
  0.00000000E+00  0.00000000E+00  0.00000000E+00
  0.00000000E+00  0.00000000E+00  0.00000000E+00
  0.00000000E+00  0.00000000E+00  0.00000000E+00
  0.00000000E+00  0.00000000E+00  0.00000000E+00
  0.00000000E+00  0.00000000E+00  0.00000000E+00
  0.00000000E+00  0.00000000E+00  0.00000000E+00
  0.00000000E+00  0.00000000E+00  0.00000000E+00
  0.00000000E+00  0.00000000E+00  0.00000000E+00
  0.00000000E+00  0.00000000E+00  0.00000000E+00
  0.00000000E+00  0.00000000E+00  0.00000000E+00
  0.00000000E+00  0.00000000E+00  0.00000000E+00
  0.00000000E+00  0.00000000E+00  0.00000000E+00
  0.00000000E+00  0.00000000E+00  0.00000000E+00
  0.00000000E+00  0.00000000E+00  0.00000000E+00
  0.00000000E+00  0.00000000E+00  0.00000000E+00
  0.00000000E+00  0.00000000E+00  0.00000000E+00
  0.00000000E+00  0.00000000E+00  0.00000000E+00
  0.00000000E+00  0.00000000E+00  0.00000000E+00
  0.00000000E+00  0.00000000E+00  0.00000000E+00
  0.00000000E+00  0.00000000E+00  0.00000000E+00
  0.00000000E+00  0.00000000E+00  0.00000000E+00
  0.00000000E+00  0.00000000E+00  0.00000000E+00
  0.00000000E+00  0.00000000E+00  0.00000000E+00
  0.00000000E+00  0.00000000E+00  0.00000000E+00
  0.00000000E+00  0.00000000E+00  0.00000000E+00
  0.00000000E+00  0.00000000E+00  0.00000000E+00
  0.00000000E+00  0.00000000E+00  0.00000000E+00
  0.00000000E+00  0.00000000E+00  0.00000000E+00
  0.00000000E+00  0.00000000E+00  0.00000000E+00
  0.00000000E+00  0.00000000E+00  0.00000000E+00
  0.00000000E+00  0.00000000E+00  0.00000000E+00
  0.00000000E+00  0.00000000E+00  0.00000000E+00
  0.00000000E+00  0.00000000E+00  0.00000000E+00
