Ag-Ir-O2                                
   1.00000000000000     
     8.7913665770999998    0.0000000000000000    0.0000000000000000
     4.3956832885999999    7.6135467898000000    0.0000000000000000
     0.0000000000000000    0.0000000000000000   24.3619652400959730
   Ag   Ir   O 
    35     1     2
Selective dynamics
Direct
  0.0000000000000000  0.0000000000000000  0.2168211016523287   F   F   F
  0.3333333129999971  0.0000000000000000  0.2168211016523287   F   F   F
  0.6666666269999979  0.0000000000000000  0.2168211016523287   F   F   F
  0.0000000000000000  0.3333333429999996  0.2168211016523287   F   F   F
  0.3333333129999971  0.3333333429999996  0.2168211016523287   F   F   F
  0.6666666870000029  0.3333333429999996  0.2168211016523287   F   F   F
  0.0000000000000000  0.6666666870000029  0.2168211016523287   F   F   F
  0.3333333129999971  0.6666666870000029  0.2168211016523287   F   F   F
  0.6666666269999979  0.6666666870000029  0.2168211016523287   F   F   F
  0.1111111040000026  0.1111111120000032  0.3150359698196610   F   F   F
  0.4444444479999987  0.1111111120000032  0.3150359698196610   F   F   F
  0.7777777909999983  0.1111111120000032  0.3150359698196610   F   F   F
  0.1111110969999984  0.4444444479999987  0.3150359698196610   F   F   F
  0.4444444180000033  0.4444444479999987  0.3150359698196610   F   F   F
  0.7777777909999983  0.4444444479999987  0.3150359698196610   F   F   F
  0.1111111040000026  0.7777777909999983  0.3150359698196610   F   F   F
  0.4444444479999987  0.7777777909999983  0.3150359698196610   F   F   F
  0.7777777909999983  0.7777777909999983  0.3150359698196610   F   F   F
  0.8883527369991100  0.2232945420017671  0.4132872880503484   F   F   F
  0.2219279207052480  0.2219279357052528  0.4114148634811272   F   F   F
  0.5561440985894990  0.2219279357052528  0.4114148634811272   F   F   F
  0.8882489383328220  0.5558755608335915  0.4126043784950824   F   F   F
  0.2219279357052528  0.5561441585894968  0.4114148634811272   F   F   F
  0.5558755608335915  0.5558755608335915  0.4126043784950824   F   F   F
  0.8883527369991100  0.8883527369991100  0.4132872880503484   F   F   F
  0.2232945120017717  0.8883527369991100  0.4132872880503484   F   F   F
  0.5558755008335936  0.8882489383328220  0.4126043784950824   F   F   F
  0.0000000000000000  0.0000000000000000  0.5098997943374002   F   F   F
  0.3331020944374785  0.0065382780879233  0.5105660341313296   F   F   F
  0.6603595674746003  0.0065382780879233  0.5105660341313296   F   F   F
  0.0065382780879233  0.3331021244374810  0.5105660341313296   F   F   F
  0.6603596274745982  0.3331021244374810  0.5105660341313296   F   F   F
  0.0065382780879233  0.6603596274745982  0.5105660341313296   F   F   F
  0.3331020944374785  0.6603596274745982  0.5105660341313296   F   F   F
  0.6666666269999979  0.6666666870000029  0.5094686364400687   F   F   F
  0.3333333129999971  0.3333333429999996  0.5013425378097267   F   F   F
  0.2550171957755367  0.3295520459137933  0.5813654854843548   T   T   T
  0.4154307273106639  0.3295520459137933  0.5813654854843548   T   T   T
 
  0.00000000E+00  0.00000000E+00  0.00000000E+00
  0.00000000E+00  0.00000000E+00  0.00000000E+00
  0.00000000E+00  0.00000000E+00  0.00000000E+00
  0.00000000E+00  0.00000000E+00  0.00000000E+00
  0.00000000E+00  0.00000000E+00  0.00000000E+00
  0.00000000E+00  0.00000000E+00  0.00000000E+00
  0.00000000E+00  0.00000000E+00  0.00000000E+00
  0.00000000E+00  0.00000000E+00  0.00000000E+00
  0.00000000E+00  0.00000000E+00  0.00000000E+00
  0.00000000E+00  0.00000000E+00  0.00000000E+00
  0.00000000E+00  0.00000000E+00  0.00000000E+00
  0.00000000E+00  0.00000000E+00  0.00000000E+00
  0.00000000E+00  0.00000000E+00  0.00000000E+00
  0.00000000E+00  0.00000000E+00  0.00000000E+00
  0.00000000E+00  0.00000000E+00  0.00000000E+00
  0.00000000E+00  0.00000000E+00  0.00000000E+00
  0.00000000E+00  0.00000000E+00  0.00000000E+00
  0.00000000E+00  0.00000000E+00  0.00000000E+00
  0.00000000E+00  0.00000000E+00  0.00000000E+00
  0.00000000E+00  0.00000000E+00  0.00000000E+00
  0.00000000E+00  0.00000000E+00  0.00000000E+00
  0.00000000E+00  0.00000000E+00  0.00000000E+00
  0.00000000E+00  0.00000000E+00  0.00000000E+00
  0.00000000E+00  0.00000000E+00  0.00000000E+00
  0.00000000E+00  0.00000000E+00  0.00000000E+00
  0.00000000E+00  0.00000000E+00  0.00000000E+00
  0.00000000E+00  0.00000000E+00  0.00000000E+00
  0.00000000E+00  0.00000000E+00  0.00000000E+00
  0.00000000E+00  0.00000000E+00  0.00000000E+00
  0.00000000E+00  0.00000000E+00  0.00000000E+00
  0.00000000E+00  0.00000000E+00  0.00000000E+00
  0.00000000E+00  0.00000000E+00  0.00000000E+00
  0.00000000E+00  0.00000000E+00  0.00000000E+00
  0.00000000E+00  0.00000000E+00  0.00000000E+00
  0.00000000E+00  0.00000000E+00  0.00000000E+00
  0.00000000E+00  0.00000000E+00  0.00000000E+00
  0.00000000E+00  0.00000000E+00  0.00000000E+00
  0.00000000E+00  0.00000000E+00  0.00000000E+00
