Ag-Nb-OH                                
   1.00000000000000     
     8.7913665770999998    0.0000000000000000    0.0000000000000000
     4.3956832885999999    7.6135467898000000    0.0000000000000000
     0.0000000000000000    0.0000000000000000   25.2479873362480873
   Ag   Nb   O    H 
    35     1     1     1
Selective dynamics
Direct
  0.0000000000000000  0.0000000000000000  0.2092122461654498   F   F   F
  0.3333333129999971  0.0000000000000000  0.2092122461654498   F   F   F
  0.6666666269999979  0.0000000000000000  0.2092122461654498   F   F   F
  0.0000000000000000  0.3333333429999996  0.2092122461654498   F   F   F
  0.3333333129999971  0.3333333429999996  0.2092122461654498   F   F   F
  0.6666666870000029  0.3333333429999996  0.2092122461654498   F   F   F
  0.0000000000000000  0.6666666870000029  0.2092122461654498   F   F   F
  0.3333333129999971  0.6666666870000029  0.2092122461654498   F   F   F
  0.6666666269999979  0.6666666870000029  0.2092122461654498   F   F   F
  0.1111111040000026  0.1111111120000032  0.3039804814504024   F   F   F
  0.4444444479999987  0.1111111120000032  0.3039804814504024   F   F   F
  0.7777777909999983  0.1111111120000032  0.3039804814504024   F   F   F
  0.1111110969999984  0.4444444479999987  0.3039804814504024   F   F   F
  0.4444444180000033  0.4444444479999987  0.3039804814504024   F   F   F
  0.7777777909999983  0.4444444479999987  0.3039804814504024   F   F   F
  0.1111111040000026  0.7777777909999983  0.3039804814504024   F   F   F
  0.4444444479999987  0.7777777909999983  0.3039804814504024   F   F   F
  0.7777777909999983  0.7777777909999983  0.3039804814504024   F   F   F
  0.8888749298558167  0.2222501562883608  0.3985002411142275   F   F   F
  0.2220022804599822  0.2220022954599727  0.3973601260290067   F   F   F
  0.5559953790800591  0.2220022954599727  0.3973601260290067   F   F   F
  0.8885842918771516  0.5557078840614196  0.3988452492865520   F   F   F
  0.2220022954599727  0.5559954390800570  0.3973601260290067   F   F   F
  0.5557078840614196  0.5557078840614196  0.3988452492865520   F   F   F
  0.8888749298558167  0.8888749298558167  0.3985002411142275   F   F   F
  0.2222501262883583  0.8888749298558167  0.3985002411142275   F   F   F
  0.5557078240614217  0.8885842918771516  0.3988452492865520   F   F   F
  0.0000000000000000  0.0000000000000000  0.4932023475205298   F   F   F
  0.3334557396958928  0.0035190010634025  0.4945920870896998   F   F   F
  0.6630251992407068  0.0035190010634025  0.4945920870896998   F   F   F
  0.0035190010634025  0.3334557696958882  0.4945920870896998   F   F   F
  0.6630252592407189  0.3334557696958882  0.4945920870896998   F   F   F
  0.0035190010634025  0.6630252592407189  0.4945920870896998   F   F   F
  0.3334557396958928  0.6630252592407189  0.4945920870896998   F   F   F
  0.6666666269999979  0.6666666870000029  0.4937904021062565   F   F   F
  0.3333333129999971  0.3333333429999996  0.4867421772906795   F   F   F
  0.3333333129999971  0.3333333429999996  0.5604602153375766   T   T   T
  0.3333333129999971  0.3333333429999996  0.5987681852493072   T   T   T
 
  0.00000000E+00  0.00000000E+00  0.00000000E+00
  0.00000000E+00  0.00000000E+00  0.00000000E+00
  0.00000000E+00  0.00000000E+00  0.00000000E+00
  0.00000000E+00  0.00000000E+00  0.00000000E+00
  0.00000000E+00  0.00000000E+00  0.00000000E+00
  0.00000000E+00  0.00000000E+00  0.00000000E+00
  0.00000000E+00  0.00000000E+00  0.00000000E+00
  0.00000000E+00  0.00000000E+00  0.00000000E+00
  0.00000000E+00  0.00000000E+00  0.00000000E+00
  0.00000000E+00  0.00000000E+00  0.00000000E+00
  0.00000000E+00  0.00000000E+00  0.00000000E+00
  0.00000000E+00  0.00000000E+00  0.00000000E+00
  0.00000000E+00  0.00000000E+00  0.00000000E+00
  0.00000000E+00  0.00000000E+00  0.00000000E+00
  0.00000000E+00  0.00000000E+00  0.00000000E+00
  0.00000000E+00  0.00000000E+00  0.00000000E+00
  0.00000000E+00  0.00000000E+00  0.00000000E+00
  0.00000000E+00  0.00000000E+00  0.00000000E+00
  0.00000000E+00  0.00000000E+00  0.00000000E+00
  0.00000000E+00  0.00000000E+00  0.00000000E+00
  0.00000000E+00  0.00000000E+00  0.00000000E+00
  0.00000000E+00  0.00000000E+00  0.00000000E+00
  0.00000000E+00  0.00000000E+00  0.00000000E+00
  0.00000000E+00  0.00000000E+00  0.00000000E+00
  0.00000000E+00  0.00000000E+00  0.00000000E+00
  0.00000000E+00  0.00000000E+00  0.00000000E+00
  0.00000000E+00  0.00000000E+00  0.00000000E+00
  0.00000000E+00  0.00000000E+00  0.00000000E+00
  0.00000000E+00  0.00000000E+00  0.00000000E+00
  0.00000000E+00  0.00000000E+00  0.00000000E+00
  0.00000000E+00  0.00000000E+00  0.00000000E+00
  0.00000000E+00  0.00000000E+00  0.00000000E+00
  0.00000000E+00  0.00000000E+00  0.00000000E+00
  0.00000000E+00  0.00000000E+00  0.00000000E+00
  0.00000000E+00  0.00000000E+00  0.00000000E+00
  0.00000000E+00  0.00000000E+00  0.00000000E+00
  0.00000000E+00  0.00000000E+00  0.00000000E+00
  0.00000000E+00  0.00000000E+00  0.00000000E+00
