Cu-Nb-CO                                
   1.00000000000000     
     7.6967864037000000    0.0000000000000000    0.0000000000000000
     3.8483927580000001    6.6656128092999998    0.0000000000000000
     0.0000000000000000    0.0000000000000000   24.4438594540988561
   Cu   Nb   C    O 
    35     1     1     1
Selective dynamics
Direct
  0.0000000000000000  0.0000000000000000  0.2197508806177382   F   F   F
  0.3333333429999996  0.0000000000000000  0.2197508806177382   F   F   F
  0.6666666870000029  0.0000000000000000  0.2197508806177382   F   F   F
  0.0000000000000000  0.3333333429999996  0.2197508806177382   F   F   F
  0.3333333129999971  0.3333333429999996  0.2197508806177382   F   F   F
  0.6666666870000029  0.3333333429999996  0.2197508806177382   F   F   F
  0.0000000000000000  0.6666666870000029  0.2197508806177382   F   F   F
  0.3333333730000021  0.6666666870000029  0.2197508806177382   F   F   F
  0.6666666269999979  0.6666666870000029  0.2197508806177382   F   F   F
  0.1111111190000003  0.1111111120000032  0.3054493062840109   F   F   F
  0.4444444180000033  0.1111111120000032  0.3054493062840109   F   F   F
  0.7777777909999983  0.1111111120000032  0.3054493062840109   F   F   F
  0.1111111190000003  0.4444444479999987  0.3054493062840109   F   F   F
  0.4444444780000012  0.4444444479999987  0.3054493062840109   F   F   F
  0.7777777310000005  0.4444444479999987  0.3054493062840109   F   F   F
  0.1111111120000032  0.7777777310000005  0.3054493062840109   F   F   F
  0.4444444780000012  0.7777777310000005  0.3054493062840109   F   F   F
  0.7777778510000033  0.7777777310000005  0.3054493062840109   F   F   F
  0.8890908966939790  0.2218182226120433  0.3903643100730534   F   F   F
  0.2223493782399970  0.2223493632400135  0.3911551075082897   F   F   F
  0.5553013035199896  0.2223493632400135  0.3911551075082897   F   F   F
  0.8885697477412933  0.5557150961293473  0.3912280819664318   F   F   F
  0.2223493482400087  0.5553012435199918  0.3911551075082897   F   F   F
  0.5557151561293523  0.5557150961293473  0.3912280819664318   F   F   F
  0.8890908966939790  0.8890908966939790  0.3903643100730534   F   F   F
  0.2218182376120268  0.8890908966939790  0.3903643100730534   F   F   F
  0.5557150961293473  0.8885697477412933  0.3912280819664318   F   F   F
  0.0000000000000000  0.0000000000000000  0.4763550549131566   F   F   F
  0.3336047474181711  0.9959667592261425  0.4773014591725797   F   F   F
  0.6704285233556888  0.9959667592261425  0.4773014591725797   F   F   F
  0.9959667592261425  0.3336047474181711  0.4773014591725797   F   F   F
  0.6704285233556888  0.3336047474181711  0.4773014591725797   F   F   F
  0.9959667592261425  0.6704285233556888  0.4773014591725797   F   F   F
  0.3336047774181665  0.6704285233556888  0.4773014591725797   F   F   F
  0.6666666269999979  0.6666666870000029  0.4772673786427077   F   F   F
  0.3333333129999971  0.3333333429999996  0.4817015633876380   F   F   F
  0.3333333129999971  0.3333333429999996  0.5684604151875021   T   T   T
  0.3333333129999971  0.3333333429999996  0.6160916537571097   T   T   T
 
  0.00000000E+00  0.00000000E+00  0.00000000E+00
  0.00000000E+00  0.00000000E+00  0.00000000E+00
  0.00000000E+00  0.00000000E+00  0.00000000E+00
  0.00000000E+00  0.00000000E+00  0.00000000E+00
  0.00000000E+00  0.00000000E+00  0.00000000E+00
  0.00000000E+00  0.00000000E+00  0.00000000E+00
  0.00000000E+00  0.00000000E+00  0.00000000E+00
  0.00000000E+00  0.00000000E+00  0.00000000E+00
  0.00000000E+00  0.00000000E+00  0.00000000E+00
  0.00000000E+00  0.00000000E+00  0.00000000E+00
  0.00000000E+00  0.00000000E+00  0.00000000E+00
  0.00000000E+00  0.00000000E+00  0.00000000E+00
  0.00000000E+00  0.00000000E+00  0.00000000E+00
  0.00000000E+00  0.00000000E+00  0.00000000E+00
  0.00000000E+00  0.00000000E+00  0.00000000E+00
  0.00000000E+00  0.00000000E+00  0.00000000E+00
  0.00000000E+00  0.00000000E+00  0.00000000E+00
  0.00000000E+00  0.00000000E+00  0.00000000E+00
  0.00000000E+00  0.00000000E+00  0.00000000E+00
  0.00000000E+00  0.00000000E+00  0.00000000E+00
  0.00000000E+00  0.00000000E+00  0.00000000E+00
  0.00000000E+00  0.00000000E+00  0.00000000E+00
  0.00000000E+00  0.00000000E+00  0.00000000E+00
  0.00000000E+00  0.00000000E+00  0.00000000E+00
  0.00000000E+00  0.00000000E+00  0.00000000E+00
  0.00000000E+00  0.00000000E+00  0.00000000E+00
  0.00000000E+00  0.00000000E+00  0.00000000E+00
  0.00000000E+00  0.00000000E+00  0.00000000E+00
  0.00000000E+00  0.00000000E+00  0.00000000E+00
  0.00000000E+00  0.00000000E+00  0.00000000E+00
  0.00000000E+00  0.00000000E+00  0.00000000E+00
  0.00000000E+00  0.00000000E+00  0.00000000E+00
  0.00000000E+00  0.00000000E+00  0.00000000E+00
  0.00000000E+00  0.00000000E+00  0.00000000E+00
  0.00000000E+00  0.00000000E+00  0.00000000E+00
  0.00000000E+00  0.00000000E+00  0.00000000E+00
  0.00000000E+00  0.00000000E+00  0.00000000E+00
  0.00000000E+00  0.00000000E+00  0.00000000E+00
