Au-Mo-N2                                
   1.00000000000000     
     8.8135128021000000    0.0000000000000000    0.0000000000000000
     4.4067569092000003    7.6327256898000000    0.0000000000000000
     0.0000000000000000    0.0000000000000000   24.6481071854217646
   Au   Mo   N 
    35     1     2
Selective dynamics
Direct
  0.0000000000000000  0.0000000000000000  0.2142306461621502   F   F   F
  0.3333333429999996  0.0000000000000000  0.2142306461621502   F   F   F
  0.6666666870000029  0.0000000000000000  0.2142306461621502   F   F   F
  0.0000000000000000  0.3333333429999996  0.2142306461621502   F   F   F
  0.3333333129999971  0.3333333429999996  0.2142306461621502   F   F   F
  0.6666666870000029  0.3333333429999996  0.2142306461621502   F   F   F
  0.0000000000000000  0.6666666870000029  0.2142306461621502   F   F   F
  0.3333333429999996  0.6666666870000029  0.2142306461621502   F   F   F
  0.6666666269999979  0.6666666870000029  0.2142306461621502   F   F   F
  0.1111111190000003  0.1111111120000032  0.3115498479431125   F   F   F
  0.4444444180000033  0.1111111120000032  0.3115498479431125   F   F   F
  0.7777777909999983  0.1111111120000032  0.3115498479431125   F   F   F
  0.1111111270000009  0.4444444479999987  0.3115498479431125   F   F   F
  0.4444444780000012  0.4444444479999987  0.3115498479431125   F   F   F
  0.7777777310000005  0.4444444479999987  0.3115498479431125   F   F   F
  0.1111110900000014  0.7777777909999983  0.3115498479431125   F   F   F
  0.4444444479999987  0.7777777909999983  0.3115498479431125   F   F   F
  0.7777778510000033  0.7777777909999983  0.3115498479431125   F   F   F
  0.8885187391105802  0.2229625377788267  0.4095203162097292   F   F   F
  0.2223143366422278  0.2223143216422301  0.4075277542702125   F   F   F
  0.5553713867155423  0.2223143216422301  0.4075277542702125   F   F   F
  0.8865446325489899  0.5567277137255005  0.4084893637719702   F   F   F
  0.2223142916422276  0.5553713867155423  0.4075277542702125   F   F   F
  0.5567277137255005  0.5567277137255005  0.4084893637719702   F   F   F
  0.8885187391105802  0.8885187391105802  0.4095203162097292   F   F   F
  0.2229625677788434  0.8885187391105802  0.4095203162097292   F   F   F
  0.5567276537255026  0.8865446325489899  0.4084893637719702   F   F   F
  0.0000000000000000  0.0000000000000000  0.5071115300701408   F   F   F
  0.3334564073824424  0.0099117229930670  0.5087480844860792   F   F   F
  0.6566318996244931  0.0099117229930670  0.5087480844860792   F   F   F
  0.0099117229930670  0.3334564073824424  0.5087480844860792   F   F   F
  0.6566318996244931  0.3334564073824424  0.5087480844860792   F   F   F
  0.0099117229930670  0.6566318996244931  0.5087480844860792   F   F   F
  0.3334564073824424  0.6566318996244931  0.5087480844860792   F   F   F
  0.6666666269999979  0.6666666870000029  0.5070788302235201   F   F   F
  0.3333333129999971  0.3333333429999996  0.4963669906217874   F   F   F
  0.2694153807756378  0.3334082631050919  0.6056654624639456   T   T   T
  0.3971763251192642  0.3334082631050919  0.6056654624639456   T   T   T
 
  0.00000000E+00  0.00000000E+00  0.00000000E+00
  0.00000000E+00  0.00000000E+00  0.00000000E+00
  0.00000000E+00  0.00000000E+00  0.00000000E+00
  0.00000000E+00  0.00000000E+00  0.00000000E+00
  0.00000000E+00  0.00000000E+00  0.00000000E+00
  0.00000000E+00  0.00000000E+00  0.00000000E+00
  0.00000000E+00  0.00000000E+00  0.00000000E+00
  0.00000000E+00  0.00000000E+00  0.00000000E+00
  0.00000000E+00  0.00000000E+00  0.00000000E+00
  0.00000000E+00  0.00000000E+00  0.00000000E+00
  0.00000000E+00  0.00000000E+00  0.00000000E+00
  0.00000000E+00  0.00000000E+00  0.00000000E+00
  0.00000000E+00  0.00000000E+00  0.00000000E+00
  0.00000000E+00  0.00000000E+00  0.00000000E+00
  0.00000000E+00  0.00000000E+00  0.00000000E+00
  0.00000000E+00  0.00000000E+00  0.00000000E+00
  0.00000000E+00  0.00000000E+00  0.00000000E+00
  0.00000000E+00  0.00000000E+00  0.00000000E+00
  0.00000000E+00  0.00000000E+00  0.00000000E+00
  0.00000000E+00  0.00000000E+00  0.00000000E+00
  0.00000000E+00  0.00000000E+00  0.00000000E+00
  0.00000000E+00  0.00000000E+00  0.00000000E+00
  0.00000000E+00  0.00000000E+00  0.00000000E+00
  0.00000000E+00  0.00000000E+00  0.00000000E+00
  0.00000000E+00  0.00000000E+00  0.00000000E+00
  0.00000000E+00  0.00000000E+00  0.00000000E+00
  0.00000000E+00  0.00000000E+00  0.00000000E+00
  0.00000000E+00  0.00000000E+00  0.00000000E+00
  0.00000000E+00  0.00000000E+00  0.00000000E+00
  0.00000000E+00  0.00000000E+00  0.00000000E+00
  0.00000000E+00  0.00000000E+00  0.00000000E+00
  0.00000000E+00  0.00000000E+00  0.00000000E+00
  0.00000000E+00  0.00000000E+00  0.00000000E+00
  0.00000000E+00  0.00000000E+00  0.00000000E+00
  0.00000000E+00  0.00000000E+00  0.00000000E+00
  0.00000000E+00  0.00000000E+00  0.00000000E+00
  0.00000000E+00  0.00000000E+00  0.00000000E+00
  0.00000000E+00  0.00000000E+00  0.00000000E+00
