Ag-Ti-N2                                
   1.00000000000000     
     8.7913665770999998    0.0000000000000000    0.0000000000000000
     4.3956832885999999    7.6135467898000000    0.0000000000000000
     0.0000000000000000    0.0000000000000000   24.1833451158988169
   Ag   Ti   N 
    35     1     2
Selective dynamics
Direct
  0.0000000000000000  0.0000000000000000  0.2184225596772720   F   F   F
  0.3333333129999971  0.0000000000000000  0.2184225596772720   F   F   F
  0.6666666269999979  0.0000000000000000  0.2184225596772720   F   F   F
  0.0000000000000000  0.3333333429999996  0.2184225596772720   F   F   F
  0.3333333129999971  0.3333333429999996  0.2184225596772720   F   F   F
  0.6666666870000029  0.3333333429999996  0.2184225596772720   F   F   F
  0.0000000000000000  0.6666666870000029  0.2184225596772720   F   F   F
  0.3333333129999971  0.6666666870000029  0.2184225596772720   F   F   F
  0.6666666269999979  0.6666666870000029  0.2184225596772720   F   F   F
  0.1111111040000026  0.1111111120000032  0.3173628507282302   F   F   F
  0.4444444479999987  0.1111111120000032  0.3173628507282302   F   F   F
  0.7777777909999983  0.1111111120000032  0.3173628507282302   F   F   F
  0.1111110969999984  0.4444444479999987  0.3173628507282302   F   F   F
  0.4444444180000033  0.4444444479999987  0.3173628507282302   F   F   F
  0.7777777909999983  0.4444444479999987  0.3173628507282302   F   F   F
  0.1111111040000026  0.7777777909999983  0.3173628507282302   F   F   F
  0.4444444479999987  0.7777777909999983  0.3173628507282302   F   F   F
  0.7777777909999983  0.7777777909999983  0.3173628507282302   F   F   F
  0.8889653483856890  0.2220693192286092  0.4156350348342812   F   F   F
  0.2226089216950129  0.2226089366950106  0.4152012265724210   F   F   F
  0.5547820966099906  0.2226089366950106  0.4152012265724210   F   F   F
  0.8885490887583174  0.5557254856208402  0.4158833344234196   F   F   F
  0.2226089366950106  0.5547821566099884  0.4152012265724210   F   F   F
  0.5557254856208402  0.5557254856208402  0.4158833344234196   F   F   F
  0.8889653483856890  0.8889653483856890  0.4156350348342812   F   F   F
  0.2220692892286067  0.8889653483856890  0.4156350348342812   F   F   F
  0.5557254256208424  0.8885490887583174  0.4158833344234196   F   F   F
  0.0000000000000000  0.0000000000000000  0.5141610330284294   F   F   F
  0.3336304597392399  0.0038717592350892  0.5151963846402197   F   F   F
  0.6624977210256588  0.0038717592350892  0.5151963846402197   F   F   F
  0.0038717592350892  0.3336304897392424  0.5151963846402197   F   F   F
  0.6624977810256567  0.3336304897392424  0.5151963846402197   F   F   F
  0.0038717592350892  0.6624977810256567  0.5151963846402197   F   F   F
  0.3336304597392399  0.6624977810256567  0.5151963846402197   F   F   F
  0.6666666269999979  0.6666666870000029  0.5149941375622689   F   F   F
  0.3333333129999971  0.3333333429999996  0.5087094482095011   F   F   F
  0.2641616457893897  0.3390034558090245  0.5981597702013663   T   T   T
  0.3968348674015796  0.3390034558090245  0.5981597702013663   T   T   T
 
  0.00000000E+00  0.00000000E+00  0.00000000E+00
  0.00000000E+00  0.00000000E+00  0.00000000E+00
  0.00000000E+00  0.00000000E+00  0.00000000E+00
  0.00000000E+00  0.00000000E+00  0.00000000E+00
  0.00000000E+00  0.00000000E+00  0.00000000E+00
  0.00000000E+00  0.00000000E+00  0.00000000E+00
  0.00000000E+00  0.00000000E+00  0.00000000E+00
  0.00000000E+00  0.00000000E+00  0.00000000E+00
  0.00000000E+00  0.00000000E+00  0.00000000E+00
  0.00000000E+00  0.00000000E+00  0.00000000E+00
  0.00000000E+00  0.00000000E+00  0.00000000E+00
  0.00000000E+00  0.00000000E+00  0.00000000E+00
  0.00000000E+00  0.00000000E+00  0.00000000E+00
  0.00000000E+00  0.00000000E+00  0.00000000E+00
  0.00000000E+00  0.00000000E+00  0.00000000E+00
  0.00000000E+00  0.00000000E+00  0.00000000E+00
  0.00000000E+00  0.00000000E+00  0.00000000E+00
  0.00000000E+00  0.00000000E+00  0.00000000E+00
  0.00000000E+00  0.00000000E+00  0.00000000E+00
  0.00000000E+00  0.00000000E+00  0.00000000E+00
  0.00000000E+00  0.00000000E+00  0.00000000E+00
  0.00000000E+00  0.00000000E+00  0.00000000E+00
  0.00000000E+00  0.00000000E+00  0.00000000E+00
  0.00000000E+00  0.00000000E+00  0.00000000E+00
  0.00000000E+00  0.00000000E+00  0.00000000E+00
  0.00000000E+00  0.00000000E+00  0.00000000E+00
  0.00000000E+00  0.00000000E+00  0.00000000E+00
  0.00000000E+00  0.00000000E+00  0.00000000E+00
  0.00000000E+00  0.00000000E+00  0.00000000E+00
  0.00000000E+00  0.00000000E+00  0.00000000E+00
  0.00000000E+00  0.00000000E+00  0.00000000E+00
  0.00000000E+00  0.00000000E+00  0.00000000E+00
  0.00000000E+00  0.00000000E+00  0.00000000E+00
  0.00000000E+00  0.00000000E+00  0.00000000E+00
  0.00000000E+00  0.00000000E+00  0.00000000E+00
  0.00000000E+00  0.00000000E+00  0.00000000E+00
  0.00000000E+00  0.00000000E+00  0.00000000E+00
  0.00000000E+00  0.00000000E+00  0.00000000E+00
