Ag-Nb-OOH                               
   1.00000000000000     
     8.7913665770999998    0.0000000000000000    0.0000000000000000
     4.3956832885999999    7.6135467898000000    0.0000000000000000
     0.0000000000000000    0.0000000000000000   26.4769051473752981
   Ag   Nb   O    H 
    35     1     2     1
Selective dynamics
Direct
  0.0000000000000000  0.0000000000000000  0.1995017209289216   F   F   F
  0.3333333129999971  0.0000000000000000  0.1995017209289216   F   F   F
  0.6666666269999979  0.0000000000000000  0.1995017209289216   F   F   F
  0.0000000000000000  0.3333333429999996  0.1995017209289216   F   F   F
  0.3333333129999971  0.3333333429999996  0.1995017209289216   F   F   F
  0.6666666870000029  0.3333333429999996  0.1995017209289216   F   F   F
  0.0000000000000000  0.6666666870000029  0.1995017209289216   F   F   F
  0.3333333129999971  0.6666666870000029  0.1995017209289216   F   F   F
  0.6666666269999979  0.6666666870000029  0.1995017209289216   F   F   F
  0.1111111040000026  0.1111111120000032  0.2898713162813635   F   F   F
  0.4444444479999987  0.1111111120000032  0.2898713162813635   F   F   F
  0.7777777909999983  0.1111111120000032  0.2898713162813635   F   F   F
  0.1111110969999984  0.4444444479999987  0.2898713162813635   F   F   F
  0.4444444180000033  0.4444444479999987  0.2898713162813635   F   F   F
  0.7777777909999983  0.4444444479999987  0.2898713162813635   F   F   F
  0.1111111040000026  0.7777777909999983  0.2898713162813635   F   F   F
  0.4444444479999987  0.7777777909999983  0.2898713162813635   F   F   F
  0.7777777909999983  0.7777777909999983  0.2898713162813635   F   F   F
  0.8888749298558167  0.2222501562883608  0.3800039689359664   F   F   F
  0.2220022804599822  0.2220022954599727  0.3789167719590907   F   F   F
  0.5559953790800591  0.2220022954599727  0.3789167719590907   F   F   F
  0.8885842918771516  0.5557078840614196  0.3803329636548511   F   F   F
  0.2220022954599727  0.5559954390800570  0.3789167719590907   F   F   F
  0.5557078840614196  0.5557078840614196  0.3803329636548511   F   F   F
  0.8888749298558167  0.8888749298558167  0.3800039689359664   F   F   F
  0.2222501262883583  0.8888749298558167  0.3800039689359664   F   F   F
  0.5557078240614217  0.8885842918771516  0.3803329636548511   F   F   F
  0.0000000000000000  0.0000000000000000  0.4703105047623168   F   F   F
  0.3334557396958928  0.0035190010634025  0.4716357399757172   F   F   F
  0.6630251992407068  0.0035190010634025  0.4716357399757172   F   F   F
  0.0035190010634025  0.3334557696958882  0.4716357399757172   F   F   F
  0.6630252592407189  0.3334557696958882  0.4716357399757172   F   F   F
  0.0035190010634025  0.6630252592407189  0.4716357399757172   F   F   F
  0.3334557396958928  0.6630252592407189  0.4716357399757172   F   F   F
  0.6666666269999979  0.6666666870000029  0.4708712649663909   F   F   F
  0.3333333129999971  0.3333333429999996  0.4641501814448574   F   F   F
  0.3225593040873692  0.3543931206222441  0.5291493428207031   T   T   T
  0.7870362458123484  0.4258608388986652  0.5288185330147360   T   T   T
  0.8068009326292136  0.3852190728544229  0.5636767017325069   T   T   T
 
  0.00000000E+00  0.00000000E+00  0.00000000E+00
  0.00000000E+00  0.00000000E+00  0.00000000E+00
  0.00000000E+00  0.00000000E+00  0.00000000E+00
  0.00000000E+00  0.00000000E+00  0.00000000E+00
  0.00000000E+00  0.00000000E+00  0.00000000E+00
  0.00000000E+00  0.00000000E+00  0.00000000E+00
  0.00000000E+00  0.00000000E+00  0.00000000E+00
  0.00000000E+00  0.00000000E+00  0.00000000E+00
  0.00000000E+00  0.00000000E+00  0.00000000E+00
  0.00000000E+00  0.00000000E+00  0.00000000E+00
  0.00000000E+00  0.00000000E+00  0.00000000E+00
  0.00000000E+00  0.00000000E+00  0.00000000E+00
  0.00000000E+00  0.00000000E+00  0.00000000E+00
  0.00000000E+00  0.00000000E+00  0.00000000E+00
  0.00000000E+00  0.00000000E+00  0.00000000E+00
  0.00000000E+00  0.00000000E+00  0.00000000E+00
  0.00000000E+00  0.00000000E+00  0.00000000E+00
  0.00000000E+00  0.00000000E+00  0.00000000E+00
  0.00000000E+00  0.00000000E+00  0.00000000E+00
  0.00000000E+00  0.00000000E+00  0.00000000E+00
  0.00000000E+00  0.00000000E+00  0.00000000E+00
  0.00000000E+00  0.00000000E+00  0.00000000E+00
  0.00000000E+00  0.00000000E+00  0.00000000E+00
  0.00000000E+00  0.00000000E+00  0.00000000E+00
  0.00000000E+00  0.00000000E+00  0.00000000E+00
  0.00000000E+00  0.00000000E+00  0.00000000E+00
  0.00000000E+00  0.00000000E+00  0.00000000E+00
  0.00000000E+00  0.00000000E+00  0.00000000E+00
  0.00000000E+00  0.00000000E+00  0.00000000E+00
  0.00000000E+00  0.00000000E+00  0.00000000E+00
  0.00000000E+00  0.00000000E+00  0.00000000E+00
  0.00000000E+00  0.00000000E+00  0.00000000E+00
  0.00000000E+00  0.00000000E+00  0.00000000E+00
  0.00000000E+00  0.00000000E+00  0.00000000E+00
  0.00000000E+00  0.00000000E+00  0.00000000E+00
  0.00000000E+00  0.00000000E+00  0.00000000E+00
  0.00000000E+00  0.00000000E+00  0.00000000E+00
  0.00000000E+00  0.00000000E+00  0.00000000E+00
  0.00000000E+00  0.00000000E+00  0.00000000E+00
