Au-Os-N2                                
   1.00000000000000     
     8.8135128021000000    0.0000000000000000    0.0000000000000000
     4.4067569092000003    7.6327256898000000    0.0000000000000000
     0.0000000000000000    0.0000000000000000   23.5570051247489438
   Au   Os   N 
    35     1     2
Selective dynamics
Direct
  0.0000000000000000  0.0000000000000000  0.2241532784428202   F   F   F
  0.3333333429999996  0.0000000000000000  0.2241532784428202   F   F   F
  0.6666666870000029  0.0000000000000000  0.2241532784428202   F   F   F
  0.0000000000000000  0.3333333429999996  0.2241532784428202   F   F   F
  0.3333333129999971  0.3333333429999996  0.2241532784428202   F   F   F
  0.6666666870000029  0.3333333429999996  0.2241532784428202   F   F   F
  0.0000000000000000  0.6666666870000029  0.2241532784428202   F   F   F
  0.3333333429999996  0.6666666870000029  0.2241532784428202   F   F   F
  0.6666666269999979  0.6666666870000029  0.2241532784428202   F   F   F
  0.1111111190000003  0.1111111120000032  0.3259800643179389   F   F   F
  0.4444444180000033  0.1111111120000032  0.3259800643179389   F   F   F
  0.7777777909999983  0.1111111120000032  0.3259800643179389   F   F   F
  0.1111111270000009  0.4444444479999987  0.3259800643179389   F   F   F
  0.4444444780000012  0.4444444479999987  0.3259800643179389   F   F   F
  0.7777777310000005  0.4444444479999987  0.3259800643179389   F   F   F
  0.1111110900000014  0.7777777909999983  0.3259800643179389   F   F   F
  0.4444444479999987  0.7777777909999983  0.3259800643179389   F   F   F
  0.7777778510000033  0.7777777909999983  0.3259800643179389   F   F   F
  0.8884339056250070  0.2231322047499589  0.4285327942960322   F   F   F
  0.2218458836441215  0.2218458686441167  0.4260176688444375   F   F   F
  0.5563082927117478  0.2218458686441167  0.4260176688444375   F   F   F
  0.8862468922324993  0.5568765838837422  0.4271707286880115   F   F   F
  0.2218458386441213  0.5563082927117478  0.4260176688444375   F   F   F
  0.5568765838837422  0.5568765838837422  0.4271707286880115   F   F   F
  0.8884339056250070  0.8884339056250070  0.4285327942960322   F   F   F
  0.2231322347499614  0.8884339056250070  0.4285327942960322   F   F   F
  0.5568765238837372  0.8862468922324993  0.4271707286880115   F   F   F
  0.0000000000000000  0.0000000000000000  0.5305841549375501   F   F   F
  0.3333114850241685  0.0085095401899977  0.5307432191262009   F   F   F
  0.6581790047858433  0.0085095401899977  0.5307432191262009   F   F   F
  0.0085095401899977  0.3333114850241685  0.5307432191262009   F   F   F
  0.6581790047858433  0.3333114850241685  0.5307432191262009   F   F   F
  0.0085095401899977  0.6581790047858433  0.5307432191262009   F   F   F
  0.3333114850241685  0.6581790047858433  0.5307432191262009   F   F   F
  0.6666666269999979  0.6666666870000029  0.5304584263742527   F   F   F
  0.3333333129999971  0.3333333429999996  0.5185237588049390   F   F   F
  0.2703228965074871  0.3302195887194799  0.6200183519789206   T   T   T
  0.3994574837730340  0.3302195887194799  0.6200183519789206   T   T   T
 
  0.00000000E+00  0.00000000E+00  0.00000000E+00
  0.00000000E+00  0.00000000E+00  0.00000000E+00
  0.00000000E+00  0.00000000E+00  0.00000000E+00
  0.00000000E+00  0.00000000E+00  0.00000000E+00
  0.00000000E+00  0.00000000E+00  0.00000000E+00
  0.00000000E+00  0.00000000E+00  0.00000000E+00
  0.00000000E+00  0.00000000E+00  0.00000000E+00
  0.00000000E+00  0.00000000E+00  0.00000000E+00
  0.00000000E+00  0.00000000E+00  0.00000000E+00
  0.00000000E+00  0.00000000E+00  0.00000000E+00
  0.00000000E+00  0.00000000E+00  0.00000000E+00
  0.00000000E+00  0.00000000E+00  0.00000000E+00
  0.00000000E+00  0.00000000E+00  0.00000000E+00
  0.00000000E+00  0.00000000E+00  0.00000000E+00
  0.00000000E+00  0.00000000E+00  0.00000000E+00
  0.00000000E+00  0.00000000E+00  0.00000000E+00
  0.00000000E+00  0.00000000E+00  0.00000000E+00
  0.00000000E+00  0.00000000E+00  0.00000000E+00
  0.00000000E+00  0.00000000E+00  0.00000000E+00
  0.00000000E+00  0.00000000E+00  0.00000000E+00
  0.00000000E+00  0.00000000E+00  0.00000000E+00
  0.00000000E+00  0.00000000E+00  0.00000000E+00
  0.00000000E+00  0.00000000E+00  0.00000000E+00
  0.00000000E+00  0.00000000E+00  0.00000000E+00
  0.00000000E+00  0.00000000E+00  0.00000000E+00
  0.00000000E+00  0.00000000E+00  0.00000000E+00
  0.00000000E+00  0.00000000E+00  0.00000000E+00
  0.00000000E+00  0.00000000E+00  0.00000000E+00
  0.00000000E+00  0.00000000E+00  0.00000000E+00
  0.00000000E+00  0.00000000E+00  0.00000000E+00
  0.00000000E+00  0.00000000E+00  0.00000000E+00
  0.00000000E+00  0.00000000E+00  0.00000000E+00
  0.00000000E+00  0.00000000E+00  0.00000000E+00
  0.00000000E+00  0.00000000E+00  0.00000000E+00
  0.00000000E+00  0.00000000E+00  0.00000000E+00
  0.00000000E+00  0.00000000E+00  0.00000000E+00
  0.00000000E+00  0.00000000E+00  0.00000000E+00
  0.00000000E+00  0.00000000E+00  0.00000000E+00
