Ag-V-COH                                
   1.00000000000000     
     8.7913665770999998    0.0000000000000000    0.0000000000000000
     4.3956832885999999    7.6135467898000000    0.0000000000000000
     0.0000000000000000    0.0000000000000000   26.5797773967759703
   Ag   V    C    O    H 
    35     1     1     1     1
Selective dynamics
Direct
  0.0000000000000000  0.0000000000000000  0.1987295853882500   F   F   F
  0.3333333129999971  0.0000000000000000  0.1987295853882500   F   F   F
  0.6666666269999979  0.0000000000000000  0.1987295853882500   F   F   F
  0.0000000000000000  0.3333333429999996  0.1987295853882500   F   F   F
  0.3333333129999971  0.3333333429999996  0.1987295853882500   F   F   F
  0.6666666870000029  0.3333333429999996  0.1987295853882500   F   F   F
  0.0000000000000000  0.6666666870000029  0.1987295853882500   F   F   F
  0.3333333129999971  0.6666666870000029  0.1987295853882500   F   F   F
  0.6666666269999979  0.6666666870000029  0.1987295853882500   F   F   F
  0.1111111040000026  0.1111111120000032  0.2887494214702215   F   F   F
  0.4444444479999987  0.1111111120000032  0.2887494214702215   F   F   F
  0.7777777909999983  0.1111111120000032  0.2887494214702215   F   F   F
  0.1111110969999984  0.4444444479999987  0.2887494214702215   F   F   F
  0.4444444180000033  0.4444444479999987  0.2887494214702215   F   F   F
  0.7777777909999983  0.4444444479999987  0.2887494214702215   F   F   F
  0.1111111040000026  0.7777777909999983  0.2887494214702215   F   F   F
  0.4444444479999987  0.7777777909999983  0.2887494214702215   F   F   F
  0.7777777909999983  0.7777777909999983  0.2887494214702215   F   F   F
  0.8888465865274071  0.2223068429451729  0.3783462567370321   F   F   F
  0.2226445376378621  0.2226445526378598  0.3776694537992782   F   F   F
  0.5547108647242922  0.2226445526378598  0.3776694537992782   F   F   F
  0.8885295266626585  0.5557352666686697  0.3783011658329301   F   F   F
  0.2226445526378598  0.5547109247242830  0.3776694537992782   F   F   F
  0.5557352666686697  0.5557352666686697  0.3783011658329301   F   F   F
  0.8888465865274071  0.8888465865274071  0.3783462567370321   F   F   F
  0.2223068129451704  0.8888465865274071  0.3783462567370321   F   F   F
  0.5557352066686718  0.8885295266626585  0.3783011658329301   F   F   F
  0.0000000000000000  0.0000000000000000  0.4676251803791232   F   F   F
  0.3335758635562769  0.0061119851352132  0.4685287285731619   F   F   F
  0.6603120913084979  0.0061119851352132  0.4685287285731619   F   F   F
  0.0061119851352132  0.3335758935562794  0.4685287285731619   F   F   F
  0.6603121513085100  0.3335758935562794  0.4685287285731619   F   F   F
  0.0061119851352132  0.6603121513085100  0.4685287285731619   F   F   F
  0.3335758635562769  0.6603121513085100  0.4685287285731619   F   F   F
  0.6666666269999979  0.6666666870000029  0.4679031688293875   F   F   F
  0.3333333129999971  0.3333333429999996  0.4596236486659606   F   F   F
  0.3333333129999971  0.3333333429999996  0.5260229651172708   T   T   T
  0.3333333129999971  0.3333333429999996  0.5740560699090480   T   T   T
  0.3333333129999971  0.3333333429999996  0.6099725665774827   T   T   T
 
  0.00000000E+00  0.00000000E+00  0.00000000E+00
  0.00000000E+00  0.00000000E+00  0.00000000E+00
  0.00000000E+00  0.00000000E+00  0.00000000E+00
  0.00000000E+00  0.00000000E+00  0.00000000E+00
  0.00000000E+00  0.00000000E+00  0.00000000E+00
  0.00000000E+00  0.00000000E+00  0.00000000E+00
  0.00000000E+00  0.00000000E+00  0.00000000E+00
  0.00000000E+00  0.00000000E+00  0.00000000E+00
  0.00000000E+00  0.00000000E+00  0.00000000E+00
  0.00000000E+00  0.00000000E+00  0.00000000E+00
  0.00000000E+00  0.00000000E+00  0.00000000E+00
  0.00000000E+00  0.00000000E+00  0.00000000E+00
  0.00000000E+00  0.00000000E+00  0.00000000E+00
  0.00000000E+00  0.00000000E+00  0.00000000E+00
  0.00000000E+00  0.00000000E+00  0.00000000E+00
  0.00000000E+00  0.00000000E+00  0.00000000E+00
  0.00000000E+00  0.00000000E+00  0.00000000E+00
  0.00000000E+00  0.00000000E+00  0.00000000E+00
  0.00000000E+00  0.00000000E+00  0.00000000E+00
  0.00000000E+00  0.00000000E+00  0.00000000E+00
  0.00000000E+00  0.00000000E+00  0.00000000E+00
  0.00000000E+00  0.00000000E+00  0.00000000E+00
  0.00000000E+00  0.00000000E+00  0.00000000E+00
  0.00000000E+00  0.00000000E+00  0.00000000E+00
  0.00000000E+00  0.00000000E+00  0.00000000E+00
  0.00000000E+00  0.00000000E+00  0.00000000E+00
  0.00000000E+00  0.00000000E+00  0.00000000E+00
  0.00000000E+00  0.00000000E+00  0.00000000E+00
  0.00000000E+00  0.00000000E+00  0.00000000E+00
  0.00000000E+00  0.00000000E+00  0.00000000E+00
  0.00000000E+00  0.00000000E+00  0.00000000E+00
  0.00000000E+00  0.00000000E+00  0.00000000E+00
  0.00000000E+00  0.00000000E+00  0.00000000E+00
  0.00000000E+00  0.00000000E+00  0.00000000E+00
  0.00000000E+00  0.00000000E+00  0.00000000E+00
  0.00000000E+00  0.00000000E+00  0.00000000E+00
  0.00000000E+00  0.00000000E+00  0.00000000E+00
  0.00000000E+00  0.00000000E+00  0.00000000E+00
  0.00000000E+00  0.00000000E+00  0.00000000E+00
