Au-Hf-CO2                               
   1.00000000000000     
     8.8135128021000000    0.0000000000000000    0.0000000000000000
     4.4067569092000003    7.6327256898000000    0.0000000000000000
     0.0000000000000000    0.0000000000000000   24.3691142039813293
   Au   Hf   C    O 
    35     1     1     2
Selective dynamics
Direct
  0.0000000000000000  0.0000000000000000  0.2166832936481526   F   F   F
  0.3333333429999996  0.0000000000000000  0.2166832936481526   F   F   F
  0.6666666870000029  0.0000000000000000  0.2166832936481526   F   F   F
  0.0000000000000000  0.3333333429999996  0.2166832936481526   F   F   F
  0.3333333129999971  0.3333333429999996  0.2166832936481526   F   F   F
  0.6666666870000029  0.3333333429999996  0.2166832936481526   F   F   F
  0.0000000000000000  0.6666666870000029  0.2166832936481526   F   F   F
  0.3333333429999996  0.6666666870000029  0.2166832936481526   F   F   F
  0.6666666269999979  0.6666666870000029  0.2166832936481526   F   F   F
  0.1111111190000003  0.1111111120000032  0.3151166670001118   F   F   F
  0.4444444180000033  0.1111111120000032  0.3151166670001118   F   F   F
  0.7777777909999983  0.1111111120000032  0.3151166670001118   F   F   F
  0.1111111270000009  0.4444444479999987  0.3151166670001118   F   F   F
  0.4444444780000012  0.4444444479999987  0.3151166670001118   F   F   F
  0.7777777310000005  0.4444444479999987  0.3151166670001118   F   F   F
  0.1111110900000014  0.7777777909999983  0.3151166670001118   F   F   F
  0.4444444479999987  0.7777777909999983  0.3151166670001118   F   F   F
  0.7777778510000033  0.7777777909999983  0.3151166670001118   F   F   F
  0.8888755800425869  0.2222488559148204  0.4134202967898517   F   F   F
  0.2226414042061009  0.2226413892061032  0.4128698426452502   F   F   F
  0.5547172515877890  0.2226413892061032  0.4128698426452502   F   F   F
  0.8873408608288571  0.5563295995855668  0.4132227217221498   F   F   F
  0.2226413592061007  0.5547172515877890  0.4128698426452502   F   F   F
  0.5563295995855668  0.5563295995855668  0.4132227217221498   F   F   F
  0.8888755800425869  0.8888755800425869  0.4134202967898517   F   F   F
  0.2222488859148228  0.8888755800425869  0.4134202967898517   F   F   F
  0.5563295395855690  0.8873408608288571  0.4132227217221498   F   F   F
  0.0000000000000000  0.0000000000000000  0.5128097812928232   F   F   F
  0.3338754718482377  0.0078634981941406  0.5153590982047973   F   F   F
  0.6582610599576313  0.0078634981941406  0.5153590982047973   F   F   F
  0.0078634981941406  0.3338754718482377  0.5153590982047973   F   F   F
  0.6582610599576313  0.3338754718482377  0.5153590982047973   F   F   F
  0.0078634981941406  0.6582610599576313  0.5153590982047973   F   F   F
  0.3338754718482377  0.6582610599576313  0.5153590982047973   F   F   F
  0.6666666269999979  0.6666666870000029  0.5132690259492279   F   F   F
  0.3333333129999971  0.3333333429999996  0.5052111389927134   F   F   F
  0.3287691684942874  0.3333658501402080  0.6719643333894829   T   T   T
  0.1954480823978759  0.3334505106051749  0.6685897495384314   T   T   T
  0.4621478735828347  0.3333148694541171  0.6743907088194787   T   T   T
 
  0.00000000E+00  0.00000000E+00  0.00000000E+00
  0.00000000E+00  0.00000000E+00  0.00000000E+00
  0.00000000E+00  0.00000000E+00  0.00000000E+00
  0.00000000E+00  0.00000000E+00  0.00000000E+00
  0.00000000E+00  0.00000000E+00  0.00000000E+00
  0.00000000E+00  0.00000000E+00  0.00000000E+00
  0.00000000E+00  0.00000000E+00  0.00000000E+00
  0.00000000E+00  0.00000000E+00  0.00000000E+00
  0.00000000E+00  0.00000000E+00  0.00000000E+00
  0.00000000E+00  0.00000000E+00  0.00000000E+00
  0.00000000E+00  0.00000000E+00  0.00000000E+00
  0.00000000E+00  0.00000000E+00  0.00000000E+00
  0.00000000E+00  0.00000000E+00  0.00000000E+00
  0.00000000E+00  0.00000000E+00  0.00000000E+00
  0.00000000E+00  0.00000000E+00  0.00000000E+00
  0.00000000E+00  0.00000000E+00  0.00000000E+00
  0.00000000E+00  0.00000000E+00  0.00000000E+00
  0.00000000E+00  0.00000000E+00  0.00000000E+00
  0.00000000E+00  0.00000000E+00  0.00000000E+00
  0.00000000E+00  0.00000000E+00  0.00000000E+00
  0.00000000E+00  0.00000000E+00  0.00000000E+00
  0.00000000E+00  0.00000000E+00  0.00000000E+00
  0.00000000E+00  0.00000000E+00  0.00000000E+00
  0.00000000E+00  0.00000000E+00  0.00000000E+00
  0.00000000E+00  0.00000000E+00  0.00000000E+00
  0.00000000E+00  0.00000000E+00  0.00000000E+00
  0.00000000E+00  0.00000000E+00  0.00000000E+00
  0.00000000E+00  0.00000000E+00  0.00000000E+00
  0.00000000E+00  0.00000000E+00  0.00000000E+00
  0.00000000E+00  0.00000000E+00  0.00000000E+00
  0.00000000E+00  0.00000000E+00  0.00000000E+00
  0.00000000E+00  0.00000000E+00  0.00000000E+00
  0.00000000E+00  0.00000000E+00  0.00000000E+00
  0.00000000E+00  0.00000000E+00  0.00000000E+00
  0.00000000E+00  0.00000000E+00  0.00000000E+00
  0.00000000E+00  0.00000000E+00  0.00000000E+00
  0.00000000E+00  0.00000000E+00  0.00000000E+00
  0.00000000E+00  0.00000000E+00  0.00000000E+00
  0.00000000E+00  0.00000000E+00  0.00000000E+00
