Cu-Ta-H2O                               
   1.00000000000000     
     7.6967864037000000    0.0000000000000000    0.0000000000000000
     3.8483927580000001    6.6656128092999998    0.0000000000000000
     0.0000000000000000    0.0000000000000000   24.2721068936942466
   Cu   Ta   H    O 
    35     1     2     1
Selective dynamics
Direct
  0.0000000000000000  0.0000000000000000  0.2213058662052134   F   F   F
  0.3333333429999996  0.0000000000000000  0.2213058662052134   F   F   F
  0.6666666870000029  0.0000000000000000  0.2213058662052134   F   F   F
  0.0000000000000000  0.3333333429999996  0.2213058662052134   F   F   F
  0.3333333129999971  0.3333333429999996  0.2213058662052134   F   F   F
  0.6666666870000029  0.3333333429999996  0.2213058662052134   F   F   F
  0.0000000000000000  0.6666666870000029  0.2213058662052134   F   F   F
  0.3333333730000021  0.6666666870000029  0.2213058662052134   F   F   F
  0.6666666269999979  0.6666666870000029  0.2213058662052134   F   F   F
  0.1111111190000003  0.1111111120000032  0.3076107049898482   F   F   F
  0.4444444180000033  0.1111111120000032  0.3076107049898482   F   F   F
  0.7777777909999983  0.1111111120000032  0.3076107049898482   F   F   F
  0.1111111190000003  0.4444444479999987  0.3076107049898482   F   F   F
  0.4444444780000012  0.4444444479999987  0.3076107049898482   F   F   F
  0.7777777310000005  0.4444444479999987  0.3076107049898482   F   F   F
  0.1111111120000032  0.7777777310000005  0.3076107049898482   F   F   F
  0.4444444780000012  0.7777777310000005  0.3076107049898482   F   F   F
  0.7777778510000033  0.7777777310000005  0.3076107049898482   F   F   F
  0.8889207598748001  0.2221584962504011  0.3935327302134581   F   F   F
  0.2217025894100217  0.2217025744100170  0.3934752484750916   F   F   F
  0.5565948811799473  0.2217025744100170  0.3934752484750916   F   F   F
  0.8883591808017925  0.5558203795990977  0.3942494561995389   F   F   F
  0.2217025594100335  0.5565948211799494  0.3934752484750916   F   F   F
  0.5558204395991027  0.5558203795990977  0.3942494561995389   F   F   F
  0.8889207598748001  0.8889207598748001  0.3935327302134581   F   F   F
  0.2221585112503988  0.8889207598748001  0.3935327302134581   F   F   F
  0.5558203795990977  0.8883591808017925  0.3942494561995389   F   F   F
  0.0000000000000000  0.0000000000000000  0.4802475501973120   F   F   F
  0.3333224260259868  0.9970181910957621  0.4816518983359188   F   F   F
  0.6696594128782465  0.9970181910957621  0.4816518983359188   F   F   F
  0.9970181910957621  0.3333224260259868  0.4816518983359188   F   F   F
  0.6696594128782465  0.3333224260259868  0.4816518983359188   F   F   F
  0.9970181910957621  0.6696594128782465  0.4816518983359188   F   F   F
  0.3333224560260035  0.6696594128782465  0.4816518983359188   F   F   F
  0.6666666269999979  0.6666666870000029  0.4810689107182924   F   F   F
  0.3333333129999971  0.3333333429999996  0.4817690314165120   F   F   F
  0.2718855820140368  0.2487528595102399  0.5858693307723697   T   T   T
  0.4772636395168631  0.2479229166094368  0.5862189675788538   T   T   T
  0.3355452996788113  0.3272206610665733  0.5756479418329339   T   T   T
 
  0.00000000E+00  0.00000000E+00  0.00000000E+00
  0.00000000E+00  0.00000000E+00  0.00000000E+00
  0.00000000E+00  0.00000000E+00  0.00000000E+00
  0.00000000E+00  0.00000000E+00  0.00000000E+00
  0.00000000E+00  0.00000000E+00  0.00000000E+00
  0.00000000E+00  0.00000000E+00  0.00000000E+00
  0.00000000E+00  0.00000000E+00  0.00000000E+00
  0.00000000E+00  0.00000000E+00  0.00000000E+00
  0.00000000E+00  0.00000000E+00  0.00000000E+00
  0.00000000E+00  0.00000000E+00  0.00000000E+00
  0.00000000E+00  0.00000000E+00  0.00000000E+00
  0.00000000E+00  0.00000000E+00  0.00000000E+00
  0.00000000E+00  0.00000000E+00  0.00000000E+00
  0.00000000E+00  0.00000000E+00  0.00000000E+00
  0.00000000E+00  0.00000000E+00  0.00000000E+00
  0.00000000E+00  0.00000000E+00  0.00000000E+00
  0.00000000E+00  0.00000000E+00  0.00000000E+00
  0.00000000E+00  0.00000000E+00  0.00000000E+00
  0.00000000E+00  0.00000000E+00  0.00000000E+00
  0.00000000E+00  0.00000000E+00  0.00000000E+00
  0.00000000E+00  0.00000000E+00  0.00000000E+00
  0.00000000E+00  0.00000000E+00  0.00000000E+00
  0.00000000E+00  0.00000000E+00  0.00000000E+00
  0.00000000E+00  0.00000000E+00  0.00000000E+00
  0.00000000E+00  0.00000000E+00  0.00000000E+00
  0.00000000E+00  0.00000000E+00  0.00000000E+00
  0.00000000E+00  0.00000000E+00  0.00000000E+00
  0.00000000E+00  0.00000000E+00  0.00000000E+00
  0.00000000E+00  0.00000000E+00  0.00000000E+00
  0.00000000E+00  0.00000000E+00  0.00000000E+00
  0.00000000E+00  0.00000000E+00  0.00000000E+00
  0.00000000E+00  0.00000000E+00  0.00000000E+00
  0.00000000E+00  0.00000000E+00  0.00000000E+00
  0.00000000E+00  0.00000000E+00  0.00000000E+00
  0.00000000E+00  0.00000000E+00  0.00000000E+00
  0.00000000E+00  0.00000000E+00  0.00000000E+00
  0.00000000E+00  0.00000000E+00  0.00000000E+00
  0.00000000E+00  0.00000000E+00  0.00000000E+00
  0.00000000E+00  0.00000000E+00  0.00000000E+00
