Au-Ta-CO2                               
   1.00000000000000     
     8.8135128021000000    0.0000000000000000    0.0000000000000000
     4.4067569092000003    7.6327256898000000    0.0000000000000000
     0.0000000000000000    0.0000000000000000   24.3691142039813293
   Au   Ta   C    O 
    35     1     1     2
Selective dynamics
Direct
  0.0000000000000000  0.0000000000000000  0.2166832936481526   F   F   F
  0.3333333429999996  0.0000000000000000  0.2166832936481526   F   F   F
  0.6666666870000029  0.0000000000000000  0.2166832936481526   F   F   F
  0.0000000000000000  0.3333333429999996  0.2166832936481526   F   F   F
  0.3333333129999971  0.3333333429999996  0.2166832936481526   F   F   F
  0.6666666870000029  0.3333333429999996  0.2166832936481526   F   F   F
  0.0000000000000000  0.6666666870000029  0.2166832936481526   F   F   F
  0.3333333429999996  0.6666666870000029  0.2166832936481526   F   F   F
  0.6666666269999979  0.6666666870000029  0.2166832936481526   F   F   F
  0.1111111190000003  0.1111111120000032  0.3151166670001118   F   F   F
  0.4444444180000033  0.1111111120000032  0.3151166670001118   F   F   F
  0.7777777909999983  0.1111111120000032  0.3151166670001118   F   F   F
  0.1111111270000009  0.4444444479999987  0.3151166670001118   F   F   F
  0.4444444780000012  0.4444444479999987  0.3151166670001118   F   F   F
  0.7777777310000005  0.4444444479999987  0.3151166670001118   F   F   F
  0.1111110900000014  0.7777777909999983  0.3151166670001118   F   F   F
  0.4444444479999987  0.7777777909999983  0.3151166670001118   F   F   F
  0.7777778510000033  0.7777777909999983  0.3151166670001118   F   F   F
  0.8884142651557880  0.2231714856884324  0.4143785537498772   F   F   F
  0.2218387030859432  0.2218386880859384  0.4122939446493916   F   F   F
  0.5563226538281185  0.2218386880859384  0.4122939446493916   F   F   F
  0.8864282378657933  0.5567859110671023  0.4131641391933627   F   F   F
  0.2218386580859431  0.5563226538281185  0.4122939446493916   F   F   F
  0.5567859110671023  0.5567859110671023  0.4131641391933627   F   F   F
  0.8884142651557880  0.8884142651557880  0.4143785537498772   F   F   F
  0.2231715156884277  0.8884142651557880  0.4143785537498772   F   F   F
  0.5567858510670973  0.8864282378657933  0.4131641391933627   F   F   F
  0.0000000000000000  0.0000000000000000  0.5129664666741576   F   F   F
  0.3342495174527187  0.0119628232575835  0.5160794159669422   F   F   F
  0.6537876892897074  0.0119628232575835  0.5160794159669422   F   F   F
  0.0119628232575835  0.3342495174527187  0.5160794159669422   F   F   F
  0.6537876892897074  0.3342495174527187  0.5160794159669422   F   F   F
  0.0119628232575835  0.6537876892897074  0.5160794159669422   F   F   F
  0.3342495174527187  0.6537876892897074  0.5160794159669422   F   F   F
  0.6666666269999979  0.6666666870000029  0.5132343421581069   F   F   F
  0.3333333129999971  0.3333333429999996  0.5006574792038307   F   F   F
  0.3339871543599671  0.3319598948579312  0.6766609003953192   T   T   T
  0.2004750441004575  0.3319983810967173  0.6763227426949001   T   T   T
  0.4675475669122306  0.3318326509752580  0.6765481255584262   T   T   T
 
  0.00000000E+00  0.00000000E+00  0.00000000E+00
  0.00000000E+00  0.00000000E+00  0.00000000E+00
  0.00000000E+00  0.00000000E+00  0.00000000E+00
  0.00000000E+00  0.00000000E+00  0.00000000E+00
  0.00000000E+00  0.00000000E+00  0.00000000E+00
  0.00000000E+00  0.00000000E+00  0.00000000E+00
  0.00000000E+00  0.00000000E+00  0.00000000E+00
  0.00000000E+00  0.00000000E+00  0.00000000E+00
  0.00000000E+00  0.00000000E+00  0.00000000E+00
  0.00000000E+00  0.00000000E+00  0.00000000E+00
  0.00000000E+00  0.00000000E+00  0.00000000E+00
  0.00000000E+00  0.00000000E+00  0.00000000E+00
  0.00000000E+00  0.00000000E+00  0.00000000E+00
  0.00000000E+00  0.00000000E+00  0.00000000E+00
  0.00000000E+00  0.00000000E+00  0.00000000E+00
  0.00000000E+00  0.00000000E+00  0.00000000E+00
  0.00000000E+00  0.00000000E+00  0.00000000E+00
  0.00000000E+00  0.00000000E+00  0.00000000E+00
  0.00000000E+00  0.00000000E+00  0.00000000E+00
  0.00000000E+00  0.00000000E+00  0.00000000E+00
  0.00000000E+00  0.00000000E+00  0.00000000E+00
  0.00000000E+00  0.00000000E+00  0.00000000E+00
  0.00000000E+00  0.00000000E+00  0.00000000E+00
  0.00000000E+00  0.00000000E+00  0.00000000E+00
  0.00000000E+00  0.00000000E+00  0.00000000E+00
  0.00000000E+00  0.00000000E+00  0.00000000E+00
  0.00000000E+00  0.00000000E+00  0.00000000E+00
  0.00000000E+00  0.00000000E+00  0.00000000E+00
  0.00000000E+00  0.00000000E+00  0.00000000E+00
  0.00000000E+00  0.00000000E+00  0.00000000E+00
  0.00000000E+00  0.00000000E+00  0.00000000E+00
  0.00000000E+00  0.00000000E+00  0.00000000E+00
  0.00000000E+00  0.00000000E+00  0.00000000E+00
  0.00000000E+00  0.00000000E+00  0.00000000E+00
  0.00000000E+00  0.00000000E+00  0.00000000E+00
  0.00000000E+00  0.00000000E+00  0.00000000E+00
  0.00000000E+00  0.00000000E+00  0.00000000E+00
  0.00000000E+00  0.00000000E+00  0.00000000E+00
  0.00000000E+00  0.00000000E+00  0.00000000E+00
