Au-Co-N2                                
   1.00000000000000     
     8.8135128021000000    0.0000000000000000    0.0000000000000000
     4.4067569092000003    7.6327256898000000    0.0000000000000000
     0.0000000000000000    0.0000000000000000   26.0426577102325361
   Au   Co   N 
    35     1     2
Selective dynamics
Direct
  0.0000000000000000  0.0000000000000000  0.2027588730674026   F   F   F
  0.3333333429999996  0.0000000000000000  0.2027588730674026   F   F   F
  0.6666666870000029  0.0000000000000000  0.2027588730674026   F   F   F
  0.0000000000000000  0.3333333429999996  0.2027588730674026   F   F   F
  0.3333333129999971  0.3333333429999996  0.2027588730674026   F   F   F
  0.6666666870000029  0.3333333429999996  0.2027588730674026   F   F   F
  0.0000000000000000  0.6666666870000029  0.2027588730674026   F   F   F
  0.3333333429999996  0.6666666870000029  0.2027588730674026   F   F   F
  0.6666666269999979  0.6666666870000029  0.2027588730674026   F   F   F
  0.1111111190000003  0.1111111120000032  0.2948667578841793   F   F   F
  0.4444444180000033  0.1111111120000032  0.2948667578841793   F   F   F
  0.7777777909999983  0.1111111120000032  0.2948667578841793   F   F   F
  0.1111111270000009  0.4444444479999987  0.2948667578841793   F   F   F
  0.4444444780000012  0.4444444479999987  0.2948667578841793   F   F   F
  0.7777777310000005  0.4444444479999987  0.2948667578841793   F   F   F
  0.1111110900000014  0.7777777909999983  0.2948667578841793   F   F   F
  0.4444444479999987  0.7777777909999983  0.2948667578841793   F   F   F
  0.7777778510000033  0.7777777909999983  0.2948667578841793   F   F   F
  0.8889492676611113  0.2221014806777717  0.3867395760718395   F   F   F
  0.2232171359122432  0.2232171209122527  0.3859342228759317   F   F   F
  0.5535657881754972  0.2232171209122527  0.3859342228759317   F   F   F
  0.8869729083961175  0.5565135758019366  0.3861642072523921   F   F   F
  0.2232170909122431  0.5535657881754972  0.3859342228759317   F   F   F
  0.5565135758019366  0.5565135758019366  0.3861642072523921   F   F   F
  0.8889492676611113  0.8889492676611113  0.3867395760718395   F   F   F
  0.2221015106777671  0.8889492676611113  0.3867395760718395   F   F   F
  0.5565135158019388  0.8869729083961175  0.3861642072523921   F   F   F
  0.0000000000000000  0.0000000000000000  0.4790849801670021   F   F   F
  0.3335061335002223  0.0084163631675267  0.4782839952331628   F   F   F
  0.6580775333322535  0.0084163631675267  0.4782839952331628   F   F   F
  0.0084163631675267  0.3335061335002223  0.4782839952331628   F   F   F
  0.6580775333322535  0.3335061335002223  0.4782839952331628   F   F   F
  0.0084163631675267  0.6580775333322535  0.4782839952331628   F   F   F
  0.3335061335002223  0.6580775333322535  0.4782839952331628   F   F   F
  0.6666666269999979  0.6666666870000029  0.4796278516502994   F   F   F
  0.3333333129999971  0.3333333429999996  0.4665779377521417   F   F   F
  0.2727259030866398  0.3281765716593858  0.6267810127191129   T   T   T
  0.3990974942539825  0.3281765716593858  0.6267810127191129   T   T   T
 
  0.00000000E+00  0.00000000E+00  0.00000000E+00
  0.00000000E+00  0.00000000E+00  0.00000000E+00
  0.00000000E+00  0.00000000E+00  0.00000000E+00
  0.00000000E+00  0.00000000E+00  0.00000000E+00
  0.00000000E+00  0.00000000E+00  0.00000000E+00
  0.00000000E+00  0.00000000E+00  0.00000000E+00
  0.00000000E+00  0.00000000E+00  0.00000000E+00
  0.00000000E+00  0.00000000E+00  0.00000000E+00
  0.00000000E+00  0.00000000E+00  0.00000000E+00
  0.00000000E+00  0.00000000E+00  0.00000000E+00
  0.00000000E+00  0.00000000E+00  0.00000000E+00
  0.00000000E+00  0.00000000E+00  0.00000000E+00
  0.00000000E+00  0.00000000E+00  0.00000000E+00
  0.00000000E+00  0.00000000E+00  0.00000000E+00
  0.00000000E+00  0.00000000E+00  0.00000000E+00
  0.00000000E+00  0.00000000E+00  0.00000000E+00
  0.00000000E+00  0.00000000E+00  0.00000000E+00
  0.00000000E+00  0.00000000E+00  0.00000000E+00
  0.00000000E+00  0.00000000E+00  0.00000000E+00
  0.00000000E+00  0.00000000E+00  0.00000000E+00
  0.00000000E+00  0.00000000E+00  0.00000000E+00
  0.00000000E+00  0.00000000E+00  0.00000000E+00
  0.00000000E+00  0.00000000E+00  0.00000000E+00
  0.00000000E+00  0.00000000E+00  0.00000000E+00
  0.00000000E+00  0.00000000E+00  0.00000000E+00
  0.00000000E+00  0.00000000E+00  0.00000000E+00
  0.00000000E+00  0.00000000E+00  0.00000000E+00
  0.00000000E+00  0.00000000E+00  0.00000000E+00
  0.00000000E+00  0.00000000E+00  0.00000000E+00
  0.00000000E+00  0.00000000E+00  0.00000000E+00
  0.00000000E+00  0.00000000E+00  0.00000000E+00
  0.00000000E+00  0.00000000E+00  0.00000000E+00
  0.00000000E+00  0.00000000E+00  0.00000000E+00
  0.00000000E+00  0.00000000E+00  0.00000000E+00
  0.00000000E+00  0.00000000E+00  0.00000000E+00
  0.00000000E+00  0.00000000E+00  0.00000000E+00
  0.00000000E+00  0.00000000E+00  0.00000000E+00
  0.00000000E+00  0.00000000E+00  0.00000000E+00
