Au-Pd-OH                                
   1.00000000000000     
     8.8135128021000000    0.0000000000000000    0.0000000000000000
     4.4067569092000003    7.6327256898000000    0.0000000000000000
     0.0000000000000000    0.0000000000000000   25.0087357774263310
   Au   Pd   O    H 
    35     1     1     1
Selective dynamics
Direct
  0.0000000000000000  0.0000000000000000  0.2111414177830184   F   F   F
  0.3333333429999996  0.0000000000000000  0.2111414177830184   F   F   F
  0.6666666870000029  0.0000000000000000  0.2111414177830184   F   F   F
  0.0000000000000000  0.3333333429999996  0.2111414177830184   F   F   F
  0.3333333129999971  0.3333333429999996  0.2111414177830184   F   F   F
  0.6666666870000029  0.3333333429999996  0.2111414177830184   F   F   F
  0.0000000000000000  0.6666666870000029  0.2111414177830184   F   F   F
  0.3333333429999996  0.6666666870000029  0.2111414177830184   F   F   F
  0.6666666269999979  0.6666666870000029  0.2111414177830184   F   F   F
  0.1111111190000003  0.1111111120000032  0.3070572664706717   F   F   F
  0.4444444180000033  0.1111111120000032  0.3070572664706717   F   F   F
  0.7777777909999983  0.1111111120000032  0.3070572664706717   F   F   F
  0.1111111270000009  0.4444444479999987  0.3070572664706717   F   F   F
  0.4444444780000012  0.4444444479999987  0.3070572664706717   F   F   F
  0.7777777310000005  0.4444444479999987  0.3070572664706717   F   F   F
  0.1111110900000014  0.7777777909999983  0.3070572664706717   F   F   F
  0.4444444479999987  0.7777777909999983  0.3070572664706717   F   F   F
  0.7777778510000033  0.7777777909999983  0.3070572664706717   F   F   F
  0.8890967813989832  0.2218064532020279  0.4023717362576278   F   F   F
  0.2221387676135578  0.2221387526135601  0.4026888939592510   F   F   F
  0.5557225247728823  0.2221387526135601  0.4026888939592510   F   F   F
  0.8888231310370074  0.5555884644815023  0.4026847931900477   F   F   F
  0.2221387226135576  0.5557225247728823  0.4026888939592510   F   F   F
  0.5555884644815023  0.5555884644815023  0.4026847931900477   F   F   F
  0.8890967813989832  0.8890967813989832  0.4023717362576278   F   F   F
  0.2218064832020374  0.8890967813989832  0.4023717362576278   F   F   F
  0.5555884044814974  0.8888231310370074  0.4026847931900477   F   F   F
  0.0000000000000000  0.0000000000000000  0.4995688623813379   F   F   F
  0.3334469292856070  0.0008666452400874  0.4994881953343366   F   F   F
  0.6656864554743080  0.0008666452400874  0.4994881953343366   F   F   F
  0.0008666452400874  0.3334469292856070  0.4994881953343366   F   F   F
  0.6656864554743080  0.3334469292856070  0.4994881953343366   F   F   F
  0.0008666452400874  0.6656864554743080  0.4994881953343366   F   F   F
  0.3334469292856070  0.6656864554743080  0.4994881953343366   F   F   F
  0.6666666269999979  0.6666666870000029  0.4997366715826601   F   F   F
  0.3333333129999971  0.3333333429999996  0.4934641507430726   F   F   F
  0.3333333129999971  0.3333333429999996  0.5736744758295748   T   T   T
  0.3333333129999971  0.3333333429999996  0.6123553771020237   T   T   T
 
  0.00000000E+00  0.00000000E+00  0.00000000E+00
  0.00000000E+00  0.00000000E+00  0.00000000E+00
  0.00000000E+00  0.00000000E+00  0.00000000E+00
  0.00000000E+00  0.00000000E+00  0.00000000E+00
  0.00000000E+00  0.00000000E+00  0.00000000E+00
  0.00000000E+00  0.00000000E+00  0.00000000E+00
  0.00000000E+00  0.00000000E+00  0.00000000E+00
  0.00000000E+00  0.00000000E+00  0.00000000E+00
  0.00000000E+00  0.00000000E+00  0.00000000E+00
  0.00000000E+00  0.00000000E+00  0.00000000E+00
  0.00000000E+00  0.00000000E+00  0.00000000E+00
  0.00000000E+00  0.00000000E+00  0.00000000E+00
  0.00000000E+00  0.00000000E+00  0.00000000E+00
  0.00000000E+00  0.00000000E+00  0.00000000E+00
  0.00000000E+00  0.00000000E+00  0.00000000E+00
  0.00000000E+00  0.00000000E+00  0.00000000E+00
  0.00000000E+00  0.00000000E+00  0.00000000E+00
  0.00000000E+00  0.00000000E+00  0.00000000E+00
  0.00000000E+00  0.00000000E+00  0.00000000E+00
  0.00000000E+00  0.00000000E+00  0.00000000E+00
  0.00000000E+00  0.00000000E+00  0.00000000E+00
  0.00000000E+00  0.00000000E+00  0.00000000E+00
  0.00000000E+00  0.00000000E+00  0.00000000E+00
  0.00000000E+00  0.00000000E+00  0.00000000E+00
  0.00000000E+00  0.00000000E+00  0.00000000E+00
  0.00000000E+00  0.00000000E+00  0.00000000E+00
  0.00000000E+00  0.00000000E+00  0.00000000E+00
  0.00000000E+00  0.00000000E+00  0.00000000E+00
  0.00000000E+00  0.00000000E+00  0.00000000E+00
  0.00000000E+00  0.00000000E+00  0.00000000E+00
  0.00000000E+00  0.00000000E+00  0.00000000E+00
  0.00000000E+00  0.00000000E+00  0.00000000E+00
  0.00000000E+00  0.00000000E+00  0.00000000E+00
  0.00000000E+00  0.00000000E+00  0.00000000E+00
  0.00000000E+00  0.00000000E+00  0.00000000E+00
  0.00000000E+00  0.00000000E+00  0.00000000E+00
  0.00000000E+00  0.00000000E+00  0.00000000E+00
  0.00000000E+00  0.00000000E+00  0.00000000E+00
