Au-W-CO2                                
   1.00000000000000     
     8.8135128021000000    0.0000000000000000    0.0000000000000000
     4.4067569092000003    7.6327256898000000    0.0000000000000000
     0.0000000000000000    0.0000000000000000   26.1619365339096177
   Au   W    C    O 
    35     1     1     2
Selective dynamics
Direct
  0.0000000000000000  0.0000000000000000  0.2018344445627207   F   F   F
  0.3333333429999996  0.0000000000000000  0.2018344445627207   F   F   F
  0.6666666870000029  0.0000000000000000  0.2018344445627207   F   F   F
  0.0000000000000000  0.3333333429999996  0.2018344445627207   F   F   F
  0.3333333129999971  0.3333333429999996  0.2018344445627207   F   F   F
  0.6666666870000029  0.3333333429999996  0.2018344445627207   F   F   F
  0.0000000000000000  0.6666666870000029  0.2018344445627207   F   F   F
  0.3333333429999996  0.6666666870000029  0.2018344445627207   F   F   F
  0.6666666269999979  0.6666666870000029  0.2018344445627207   F   F   F
  0.1111111190000003  0.1111111120000032  0.2935223864544767   F   F   F
  0.4444444180000033  0.1111111120000032  0.2935223864544767   F   F   F
  0.7777777909999983  0.1111111120000032  0.2935223864544767   F   F   F
  0.1111111270000009  0.4444444479999987  0.2935223864544767   F   F   F
  0.4444444780000012  0.4444444479999987  0.2935223864544767   F   F   F
  0.7777777310000005  0.4444444479999987  0.2935223864544767   F   F   F
  0.1111110900000014  0.7777777909999983  0.2935223864544767   F   F   F
  0.4444444479999987  0.7777777909999983  0.2935223864544767   F   F   F
  0.7777778510000033  0.7777777909999983  0.2935223864544767   F   F   F
  0.8881089401043099  0.2237821357913674  0.3860881638808777   F   F   F
  0.2217439540973771  0.2217439390973865  0.3837682437192527   F   F   F
  0.5565121518052223  0.2217439390973865  0.3837682437192527   F   F   F
  0.8861386038732775  0.5569307280633566  0.3847743184900878   F   F   F
  0.2217439090973770  0.5565121518052223  0.3837682437192527   F   F   F
  0.5569307280633566  0.5569307280633566  0.3847743184900878   F   F   F
  0.8881089401043099  0.8881089401043099  0.3860881638808777   F   F   F
  0.2237821657913770  0.8881089401043099  0.3860881638808777   F   F   F
  0.5569306680633588  0.8861386038732775  0.3847743184900878   F   F   F
  0.0000000000000000  0.0000000000000000  0.4777635410912779   F   F   F
  0.3336845570432700  0.0131638965732819  0.4798751333906495   F   F   F
  0.6531515763834506  0.0131638965732819  0.4798751333906495   F   F   F
  0.0131638965732819  0.3336845570432700  0.4798751333906495   F   F   F
  0.6531515763834506  0.3336845570432700  0.4798751333906495   F   F   F
  0.0131638965732819  0.6531515763834506  0.4798751333906495   F   F   F
  0.3336845570432700  0.6531515763834506  0.4798751333906495   F   F   F
  0.6666666269999979  0.6666666870000029  0.4777434104438214   F   F   F
  0.3333333129999971  0.3333333429999996  0.4657759427630026   F   F   F
  0.3334472773661419  0.3226959081694714  0.6295628301376059   T   T   T
  0.2058809560566717  0.3122609826502316  0.6261252373451868   T   T   T
  0.4610109701136327  0.3332126235968130  0.6327236619671167   T   T   T
 
  0.00000000E+00  0.00000000E+00  0.00000000E+00
  0.00000000E+00  0.00000000E+00  0.00000000E+00
  0.00000000E+00  0.00000000E+00  0.00000000E+00
  0.00000000E+00  0.00000000E+00  0.00000000E+00
  0.00000000E+00  0.00000000E+00  0.00000000E+00
  0.00000000E+00  0.00000000E+00  0.00000000E+00
  0.00000000E+00  0.00000000E+00  0.00000000E+00
  0.00000000E+00  0.00000000E+00  0.00000000E+00
  0.00000000E+00  0.00000000E+00  0.00000000E+00
  0.00000000E+00  0.00000000E+00  0.00000000E+00
  0.00000000E+00  0.00000000E+00  0.00000000E+00
  0.00000000E+00  0.00000000E+00  0.00000000E+00
  0.00000000E+00  0.00000000E+00  0.00000000E+00
  0.00000000E+00  0.00000000E+00  0.00000000E+00
  0.00000000E+00  0.00000000E+00  0.00000000E+00
  0.00000000E+00  0.00000000E+00  0.00000000E+00
  0.00000000E+00  0.00000000E+00  0.00000000E+00
  0.00000000E+00  0.00000000E+00  0.00000000E+00
  0.00000000E+00  0.00000000E+00  0.00000000E+00
  0.00000000E+00  0.00000000E+00  0.00000000E+00
  0.00000000E+00  0.00000000E+00  0.00000000E+00
  0.00000000E+00  0.00000000E+00  0.00000000E+00
  0.00000000E+00  0.00000000E+00  0.00000000E+00
  0.00000000E+00  0.00000000E+00  0.00000000E+00
  0.00000000E+00  0.00000000E+00  0.00000000E+00
  0.00000000E+00  0.00000000E+00  0.00000000E+00
  0.00000000E+00  0.00000000E+00  0.00000000E+00
  0.00000000E+00  0.00000000E+00  0.00000000E+00
  0.00000000E+00  0.00000000E+00  0.00000000E+00
  0.00000000E+00  0.00000000E+00  0.00000000E+00
  0.00000000E+00  0.00000000E+00  0.00000000E+00
  0.00000000E+00  0.00000000E+00  0.00000000E+00
  0.00000000E+00  0.00000000E+00  0.00000000E+00
  0.00000000E+00  0.00000000E+00  0.00000000E+00
  0.00000000E+00  0.00000000E+00  0.00000000E+00
  0.00000000E+00  0.00000000E+00  0.00000000E+00
  0.00000000E+00  0.00000000E+00  0.00000000E+00
  0.00000000E+00  0.00000000E+00  0.00000000E+00
  0.00000000E+00  0.00000000E+00  0.00000000E+00
