Ag-Mn-OOH                               
   1.00000000000000     
     8.7913665770999998    0.0000000000000000    0.0000000000000000
     4.3956832885999999    7.6135467898000000    0.0000000000000000
     0.0000000000000000    0.0000000000000000   25.9078406019906637
   Ag   Mn   O    H 
    35     1     2     1
Selective dynamics
Direct
  0.0000000000000000  0.0000000000000000  0.2038837671931404   F   F   F
  0.3333333129999971  0.0000000000000000  0.2038837671931404   F   F   F
  0.6666666269999979  0.0000000000000000  0.2038837671931404   F   F   F
  0.0000000000000000  0.3333333429999996  0.2038837671931404   F   F   F
  0.3333333129999971  0.3333333429999996  0.2038837671931404   F   F   F
  0.6666666870000029  0.3333333429999996  0.2038837671931404   F   F   F
  0.0000000000000000  0.6666666870000029  0.2038837671931404   F   F   F
  0.3333333129999971  0.6666666870000029  0.2038837671931404   F   F   F
  0.6666666269999979  0.6666666870000029  0.2038837671931404   F   F   F
  0.1111111040000026  0.1111111120000032  0.2962383266144002   F   F   F
  0.4444444479999987  0.1111111120000032  0.2962383266144002   F   F   F
  0.7777777909999983  0.1111111120000032  0.2962383266144002   F   F   F
  0.1111110969999984  0.4444444479999987  0.2962383266144002   F   F   F
  0.4444444180000033  0.4444444479999987  0.2962383266144002   F   F   F
  0.7777777909999983  0.4444444479999987  0.2962383266144002   F   F   F
  0.1111111040000026  0.7777777909999983  0.2962383266144002   F   F   F
  0.4444444479999987  0.7777777909999983  0.2962383266144002   F   F   F
  0.7777777909999983  0.7777777909999983  0.2962383266144002   F   F   F
  0.8887148833031517  0.2225702493936907  0.3883532259285190   F   F   F
  0.2230661282861206  0.2230661432861183  0.3875410229657916   F   F   F
  0.5538676834277609  0.2230661432861183  0.3875410229657916   F   F   F
  0.8884839643255233  0.5557580478372373  0.3880541848203123   F   F   F
  0.2230661432861183  0.5538677434277588  0.3875410229657916   F   F   F
  0.5557580478372373  0.5557580478372373  0.3880541848203123   F   F   F
  0.8887148833031517  0.8887148833031517  0.3883532259285190   F   F   F
  0.2225702193936883  0.8887148833031517  0.3883532259285190   F   F   F
  0.5557579878372394  0.8884839643255233  0.3880541848203123   F   F   F
  0.0000000000000000  0.0000000000000000  0.4795985990897904   F   F   F
  0.3332766827137590  0.0078796074390297  0.4801075382991868   F   F   F
  0.6588436498472134  0.0078796074390297  0.4801075382991868   F   F   F
  0.0078796074390297  0.3332767127137615  0.4801075382991868   F   F   F
  0.6588437098472113  0.3332767127137615  0.4801075382991868   F   F   F
  0.0078796074390297  0.6588437098472113  0.4801075382991868   F   F   F
  0.3332766827137590  0.6588437098472113  0.4801075382991868   F   F   F
  0.6666666269999979  0.6666666870000029  0.4795735407804074   F   F   F
  0.3333333129999971  0.3333333429999996  0.4697298740987392   F   F   F
  0.3428960137571191  0.3028664056492389  0.5306651262987279   T   T   T
  0.1044740693781104  0.1046624738765356  0.5398678705676988   T   T   T
  0.0964093711794430  0.1010803641302211  0.5772549205295935   T   T   T
 
  0.00000000E+00  0.00000000E+00  0.00000000E+00
  0.00000000E+00  0.00000000E+00  0.00000000E+00
  0.00000000E+00  0.00000000E+00  0.00000000E+00
  0.00000000E+00  0.00000000E+00  0.00000000E+00
  0.00000000E+00  0.00000000E+00  0.00000000E+00
  0.00000000E+00  0.00000000E+00  0.00000000E+00
  0.00000000E+00  0.00000000E+00  0.00000000E+00
  0.00000000E+00  0.00000000E+00  0.00000000E+00
  0.00000000E+00  0.00000000E+00  0.00000000E+00
  0.00000000E+00  0.00000000E+00  0.00000000E+00
  0.00000000E+00  0.00000000E+00  0.00000000E+00
  0.00000000E+00  0.00000000E+00  0.00000000E+00
  0.00000000E+00  0.00000000E+00  0.00000000E+00
  0.00000000E+00  0.00000000E+00  0.00000000E+00
  0.00000000E+00  0.00000000E+00  0.00000000E+00
  0.00000000E+00  0.00000000E+00  0.00000000E+00
  0.00000000E+00  0.00000000E+00  0.00000000E+00
  0.00000000E+00  0.00000000E+00  0.00000000E+00
  0.00000000E+00  0.00000000E+00  0.00000000E+00
  0.00000000E+00  0.00000000E+00  0.00000000E+00
  0.00000000E+00  0.00000000E+00  0.00000000E+00
  0.00000000E+00  0.00000000E+00  0.00000000E+00
  0.00000000E+00  0.00000000E+00  0.00000000E+00
  0.00000000E+00  0.00000000E+00  0.00000000E+00
  0.00000000E+00  0.00000000E+00  0.00000000E+00
  0.00000000E+00  0.00000000E+00  0.00000000E+00
  0.00000000E+00  0.00000000E+00  0.00000000E+00
  0.00000000E+00  0.00000000E+00  0.00000000E+00
  0.00000000E+00  0.00000000E+00  0.00000000E+00
  0.00000000E+00  0.00000000E+00  0.00000000E+00
  0.00000000E+00  0.00000000E+00  0.00000000E+00
  0.00000000E+00  0.00000000E+00  0.00000000E+00
  0.00000000E+00  0.00000000E+00  0.00000000E+00
  0.00000000E+00  0.00000000E+00  0.00000000E+00
  0.00000000E+00  0.00000000E+00  0.00000000E+00
  0.00000000E+00  0.00000000E+00  0.00000000E+00
  0.00000000E+00  0.00000000E+00  0.00000000E+00
  0.00000000E+00  0.00000000E+00  0.00000000E+00
  0.00000000E+00  0.00000000E+00  0.00000000E+00
