Au-Mn-N2                                
   1.00000000000000     
     8.8135128021000000    0.0000000000000000    0.0000000000000000
     4.4067569092000003    7.6327256898000000    0.0000000000000000
     0.0000000000000000    0.0000000000000000   26.0155079059034193
   Au   Mn   N 
    35     1     2
Selective dynamics
Direct
  0.0000000000000000  0.0000000000000000  0.2029704723853811   F   F   F
  0.3333333429999996  0.0000000000000000  0.2029704723853811   F   F   F
  0.6666666870000029  0.0000000000000000  0.2029704723853811   F   F   F
  0.0000000000000000  0.3333333429999996  0.2029704723853811   F   F   F
  0.3333333129999971  0.3333333429999996  0.2029704723853811   F   F   F
  0.6666666870000029  0.3333333429999996  0.2029704723853811   F   F   F
  0.0000000000000000  0.6666666870000029  0.2029704723853811   F   F   F
  0.3333333429999996  0.6666666870000029  0.2029704723853811   F   F   F
  0.6666666269999979  0.6666666870000029  0.2029704723853811   F   F   F
  0.1111111190000003  0.1111111120000032  0.2951744810625527   F   F   F
  0.4444444180000033  0.1111111120000032  0.2951744810625527   F   F   F
  0.7777777909999983  0.1111111120000032  0.2951744810625527   F   F   F
  0.1111111270000009  0.4444444479999987  0.2951744810625527   F   F   F
  0.4444444780000012  0.4444444479999987  0.2951744810625527   F   F   F
  0.7777777310000005  0.4444444479999987  0.2951744810625527   F   F   F
  0.1111110900000014  0.7777777909999983  0.2951744810625527   F   F   F
  0.4444444479999987  0.7777777909999983  0.2951744810625527   F   F   F
  0.7777778510000033  0.7777777909999983  0.2951744810625527   F   F   F
  0.8888975383637430  0.2222049392725012  0.3872608750258806   F   F   F
  0.2233740122997787  0.2233739972997810  0.3863041932118634   F   F   F
  0.5532520354004404  0.2233739972997810  0.3863041932118634   F   F   F
  0.8864637922595335  0.5567681338702286  0.3866200913763578   F   F   F
  0.2233739672997785  0.5532520354004404  0.3863041932118634   F   F   F
  0.5567681338702286  0.5567681338702286  0.3866200913763578   F   F   F
  0.8888975383637430  0.8888975383637430  0.3872608750258806   F   F   F
  0.2222049692724966  0.8888975383637430  0.3872608750258806   F   F   F
  0.5567680738702308  0.8864637922595335  0.3866200913763578   F   F   F
  0.0000000000000000  0.0000000000000000  0.4800113712222398   F   F   F
  0.3335216666197169  0.0102759252395614  0.4795004179611126   F   F   F
  0.6562024381407170  0.0102759252395614  0.4795004179611126   F   F   F
  0.0102759252395614  0.3335216666197169  0.4795004179611126   F   F   F
  0.6562024381407170  0.3335216666197169  0.4795004179611126   F   F   F
  0.0102759252395614  0.6562024381407170  0.4795004179611126   F   F   F
  0.3335216666197169  0.6562024381407170  0.4795004179611126   F   F   F
  0.6666666269999979  0.6666666870000029  0.4803062636255078   F   F   F
  0.3333333129999971  0.3333333429999996  0.4677340193603570   F   F   F
  0.2975394699306919  0.2785432884040218  0.6263921425712528   T   T   T
  0.4239172106652873  0.2785432884040218  0.6263921425712528   T   T   T
 
  0.00000000E+00  0.00000000E+00  0.00000000E+00
  0.00000000E+00  0.00000000E+00  0.00000000E+00
  0.00000000E+00  0.00000000E+00  0.00000000E+00
  0.00000000E+00  0.00000000E+00  0.00000000E+00
  0.00000000E+00  0.00000000E+00  0.00000000E+00
  0.00000000E+00  0.00000000E+00  0.00000000E+00
  0.00000000E+00  0.00000000E+00  0.00000000E+00
  0.00000000E+00  0.00000000E+00  0.00000000E+00
  0.00000000E+00  0.00000000E+00  0.00000000E+00
  0.00000000E+00  0.00000000E+00  0.00000000E+00
  0.00000000E+00  0.00000000E+00  0.00000000E+00
  0.00000000E+00  0.00000000E+00  0.00000000E+00
  0.00000000E+00  0.00000000E+00  0.00000000E+00
  0.00000000E+00  0.00000000E+00  0.00000000E+00
  0.00000000E+00  0.00000000E+00  0.00000000E+00
  0.00000000E+00  0.00000000E+00  0.00000000E+00
  0.00000000E+00  0.00000000E+00  0.00000000E+00
  0.00000000E+00  0.00000000E+00  0.00000000E+00
  0.00000000E+00  0.00000000E+00  0.00000000E+00
  0.00000000E+00  0.00000000E+00  0.00000000E+00
  0.00000000E+00  0.00000000E+00  0.00000000E+00
  0.00000000E+00  0.00000000E+00  0.00000000E+00
  0.00000000E+00  0.00000000E+00  0.00000000E+00
  0.00000000E+00  0.00000000E+00  0.00000000E+00
  0.00000000E+00  0.00000000E+00  0.00000000E+00
  0.00000000E+00  0.00000000E+00  0.00000000E+00
  0.00000000E+00  0.00000000E+00  0.00000000E+00
  0.00000000E+00  0.00000000E+00  0.00000000E+00
  0.00000000E+00  0.00000000E+00  0.00000000E+00
  0.00000000E+00  0.00000000E+00  0.00000000E+00
  0.00000000E+00  0.00000000E+00  0.00000000E+00
  0.00000000E+00  0.00000000E+00  0.00000000E+00
  0.00000000E+00  0.00000000E+00  0.00000000E+00
  0.00000000E+00  0.00000000E+00  0.00000000E+00
  0.00000000E+00  0.00000000E+00  0.00000000E+00
  0.00000000E+00  0.00000000E+00  0.00000000E+00
  0.00000000E+00  0.00000000E+00  0.00000000E+00
  0.00000000E+00  0.00000000E+00  0.00000000E+00
