Ag-Os-H2                                
   1.00000000000000     
     8.7913665770999998    0.0000000000000000    0.0000000000000000
     4.3956832885999999    7.6135467898000000    0.0000000000000000
     0.0000000000000000    0.0000000000000000   23.2942365398313633
   Ag   Os   H 
    35     1     2
Selective dynamics
Direct
  0.0000000000000000  0.0000000000000000  0.2267594446695469   F   F   F
  0.3333333129999971  0.0000000000000000  0.2267594446695469   F   F   F
  0.6666666269999979  0.0000000000000000  0.2267594446695469   F   F   F
  0.0000000000000000  0.3333333429999996  0.2267594446695469   F   F   F
  0.3333333129999971  0.3333333429999996  0.2267594446695469   F   F   F
  0.6666666870000029  0.3333333429999996  0.2267594446695469   F   F   F
  0.0000000000000000  0.6666666870000029  0.2267594446695469   F   F   F
  0.3333333129999971  0.6666666870000029  0.2267594446695469   F   F   F
  0.6666666269999979  0.6666666870000029  0.2267594446695469   F   F   F
  0.1111111040000026  0.1111111120000032  0.3294761488749813   F   F   F
  0.4444444479999987  0.1111111120000032  0.3294761488749813   F   F   F
  0.7777777909999983  0.1111111120000032  0.3294761488749813   F   F   F
  0.1111110969999984  0.4444444479999987  0.3294761488749813   F   F   F
  0.4444444180000033  0.4444444479999987  0.3294761488749813   F   F   F
  0.7777777909999983  0.4444444479999987  0.3294761488749813   F   F   F
  0.1111111040000026  0.7777777909999983  0.3294761488749813   F   F   F
  0.4444444479999987  0.7777777909999983  0.3294761488749813   F   F   F
  0.7777777909999983  0.7777777909999983  0.3294761488749813   F   F   F
  0.8884725832112110  0.2230548495775722  0.4323147384026313   F   F   F
  0.2222448940414310  0.2222449090414287  0.4302356596314070   F   F   F
  0.5555101519171330  0.2222449090414287  0.4302356596314070   F   F   F
  0.8879547361050228  0.5560226619474804  0.4316424369122913   F   F   F
  0.2222449090414287  0.5555102119171309  0.4302356596314070   F   F   F
  0.5560226619474804  0.5560226619474804  0.4316424369122913   F   F   F
  0.8884725832112110  0.8884725832112110  0.4323147384026313   F   F   F
  0.2230548195775697  0.8884725832112110  0.4323147384026313   F   F   F
  0.5560226019474825  0.8879547361050228  0.4316424369122913   F   F   F
  0.0000000000000000  0.0000000000000000  0.5334915189829772   F   F   F
  0.3330236509919331  0.0075497303458789  0.5343994533736733   F   F   F
  0.6594265586621901  0.0075497303458789  0.5343994533736733   F   F   F
  0.0075497303458789  0.3330236809919427  0.5343994533736733   F   F   F
  0.6594266186622022  0.3330236809919427  0.5343994533736733   F   F   F
  0.0075497303458789  0.6594266186622022  0.5343994533736733   F   F   F
  0.3330236509919331  0.6594266186622022  0.5343994533736733   F   F   F
  0.6666666269999979  0.6666666870000029  0.5332312644415111   F   F   F
  0.3333333129999971  0.3333333429999996  0.5238684404977789   F   F   F
  0.2446643505630988  0.3099966151974414  0.5828233373688789   T   T   T
  0.4453390032394609  0.3099966151974414  0.5828233373688789   T   T   T
 
  0.00000000E+00  0.00000000E+00  0.00000000E+00
  0.00000000E+00  0.00000000E+00  0.00000000E+00
  0.00000000E+00  0.00000000E+00  0.00000000E+00
  0.00000000E+00  0.00000000E+00  0.00000000E+00
  0.00000000E+00  0.00000000E+00  0.00000000E+00
  0.00000000E+00  0.00000000E+00  0.00000000E+00
  0.00000000E+00  0.00000000E+00  0.00000000E+00
  0.00000000E+00  0.00000000E+00  0.00000000E+00
  0.00000000E+00  0.00000000E+00  0.00000000E+00
  0.00000000E+00  0.00000000E+00  0.00000000E+00
  0.00000000E+00  0.00000000E+00  0.00000000E+00
  0.00000000E+00  0.00000000E+00  0.00000000E+00
  0.00000000E+00  0.00000000E+00  0.00000000E+00
  0.00000000E+00  0.00000000E+00  0.00000000E+00
  0.00000000E+00  0.00000000E+00  0.00000000E+00
  0.00000000E+00  0.00000000E+00  0.00000000E+00
  0.00000000E+00  0.00000000E+00  0.00000000E+00
  0.00000000E+00  0.00000000E+00  0.00000000E+00
  0.00000000E+00  0.00000000E+00  0.00000000E+00
  0.00000000E+00  0.00000000E+00  0.00000000E+00
  0.00000000E+00  0.00000000E+00  0.00000000E+00
  0.00000000E+00  0.00000000E+00  0.00000000E+00
  0.00000000E+00  0.00000000E+00  0.00000000E+00
  0.00000000E+00  0.00000000E+00  0.00000000E+00
  0.00000000E+00  0.00000000E+00  0.00000000E+00
  0.00000000E+00  0.00000000E+00  0.00000000E+00
  0.00000000E+00  0.00000000E+00  0.00000000E+00
  0.00000000E+00  0.00000000E+00  0.00000000E+00
  0.00000000E+00  0.00000000E+00  0.00000000E+00
  0.00000000E+00  0.00000000E+00  0.00000000E+00
  0.00000000E+00  0.00000000E+00  0.00000000E+00
  0.00000000E+00  0.00000000E+00  0.00000000E+00
  0.00000000E+00  0.00000000E+00  0.00000000E+00
  0.00000000E+00  0.00000000E+00  0.00000000E+00
  0.00000000E+00  0.00000000E+00  0.00000000E+00
  0.00000000E+00  0.00000000E+00  0.00000000E+00
  0.00000000E+00  0.00000000E+00  0.00000000E+00
  0.00000000E+00  0.00000000E+00  0.00000000E+00
