Ag-Pt-N2                                
   1.00000000000000     
     8.7913665770999998    0.0000000000000000    0.0000000000000000
     4.3956832885999999    7.6135467898000000    0.0000000000000000
     0.0000000000000000    0.0000000000000000   24.2277937441752869
   Ag   Pt   N 
    35     1     2
Selective dynamics
Direct
  0.0000000000000000  0.0000000000000000  0.2180218387835424   F   F   F
  0.3333333129999971  0.0000000000000000  0.2180218387835424   F   F   F
  0.6666666269999979  0.0000000000000000  0.2180218387835424   F   F   F
  0.0000000000000000  0.3333333429999996  0.2180218387835424   F   F   F
  0.3333333129999971  0.3333333429999996  0.2180218387835424   F   F   F
  0.6666666870000029  0.3333333429999996  0.2180218387835424   F   F   F
  0.0000000000000000  0.6666666870000029  0.2180218387835424   F   F   F
  0.3333333129999971  0.6666666870000029  0.2180218387835424   F   F   F
  0.6666666269999979  0.6666666870000029  0.2180218387835424   F   F   F
  0.1111111040000026  0.1111111120000032  0.3167806126784285   F   F   F
  0.4444444479999987  0.1111111120000032  0.3167806126784285   F   F   F
  0.7777777909999983  0.1111111120000032  0.3167806126784285   F   F   F
  0.1111110969999984  0.4444444479999987  0.3167806126784285   F   F   F
  0.4444444180000033  0.4444444479999987  0.3167806126784285   F   F   F
  0.7777777909999983  0.4444444479999987  0.3167806126784285   F   F   F
  0.1111111040000026  0.7777777909999983  0.3167806126784285   F   F   F
  0.4444444479999987  0.7777777909999983  0.3167806126784285   F   F   F
  0.7777777909999983  0.7777777909999983  0.3167806126784285   F   F   F
  0.8883511151126982  0.2232977857745979  0.4152673450261588   F   F   F
  0.2214609333873625  0.2214609483873602  0.4138847692544019   F   F   F
  0.5570780732252771  0.2214609483873602  0.4138847692544019   F   F   F
  0.8885641818864229  0.5557179390567768  0.4146147919168612   F   F   F
  0.2214609483873602  0.5570781332252679  0.4138847692544019   F   F   F
  0.5557179390567768  0.5557179390567768  0.4146147919168612   F   F   F
  0.8883511151126982  0.8883511151126982  0.4152673450261588   F   F   F
  0.2232977557746025  0.8883511151126982  0.4152673450261588   F   F   F
  0.5557178790567932  0.8885641818864229  0.4146147919168612   F   F   F
  0.0000000000000000  0.0000000000000000  0.5127303785691026   F   F   F
  0.3333622403172427  0.0042214060965335  0.5132375514903913   F   F   F
  0.6624162935862330  0.0042214060965335  0.5132375514903913   F   F   F
  0.0042214060965335  0.3333622703172523  0.5132375514903913   F   F   F
  0.6624163535862309  0.3333622703172523  0.5132375514903913   F   F   F
  0.0042214060965335  0.6624163535862309  0.5132375514903913   F   F   F
  0.3333622403172427  0.6624163535862309  0.5132375514903913   F   F   F
  0.6666666269999979  0.6666666870000029  0.5123244452989866   F   F   F
  0.3333333129999971  0.3333333429999996  0.5058882821591766   F   F   F
  0.2709259619387510  0.3314671461610033  0.6806555992431740   T   T   T
  0.3976068609002468  0.3314671461610033  0.6806555992431740   T   T   T
 
  0.00000000E+00  0.00000000E+00  0.00000000E+00
  0.00000000E+00  0.00000000E+00  0.00000000E+00
  0.00000000E+00  0.00000000E+00  0.00000000E+00
  0.00000000E+00  0.00000000E+00  0.00000000E+00
  0.00000000E+00  0.00000000E+00  0.00000000E+00
  0.00000000E+00  0.00000000E+00  0.00000000E+00
  0.00000000E+00  0.00000000E+00  0.00000000E+00
  0.00000000E+00  0.00000000E+00  0.00000000E+00
  0.00000000E+00  0.00000000E+00  0.00000000E+00
  0.00000000E+00  0.00000000E+00  0.00000000E+00
  0.00000000E+00  0.00000000E+00  0.00000000E+00
  0.00000000E+00  0.00000000E+00  0.00000000E+00
  0.00000000E+00  0.00000000E+00  0.00000000E+00
  0.00000000E+00  0.00000000E+00  0.00000000E+00
  0.00000000E+00  0.00000000E+00  0.00000000E+00
  0.00000000E+00  0.00000000E+00  0.00000000E+00
  0.00000000E+00  0.00000000E+00  0.00000000E+00
  0.00000000E+00  0.00000000E+00  0.00000000E+00
  0.00000000E+00  0.00000000E+00  0.00000000E+00
  0.00000000E+00  0.00000000E+00  0.00000000E+00
  0.00000000E+00  0.00000000E+00  0.00000000E+00
  0.00000000E+00  0.00000000E+00  0.00000000E+00
  0.00000000E+00  0.00000000E+00  0.00000000E+00
  0.00000000E+00  0.00000000E+00  0.00000000E+00
  0.00000000E+00  0.00000000E+00  0.00000000E+00
  0.00000000E+00  0.00000000E+00  0.00000000E+00
  0.00000000E+00  0.00000000E+00  0.00000000E+00
  0.00000000E+00  0.00000000E+00  0.00000000E+00
  0.00000000E+00  0.00000000E+00  0.00000000E+00
  0.00000000E+00  0.00000000E+00  0.00000000E+00
  0.00000000E+00  0.00000000E+00  0.00000000E+00
  0.00000000E+00  0.00000000E+00  0.00000000E+00
  0.00000000E+00  0.00000000E+00  0.00000000E+00
  0.00000000E+00  0.00000000E+00  0.00000000E+00
  0.00000000E+00  0.00000000E+00  0.00000000E+00
  0.00000000E+00  0.00000000E+00  0.00000000E+00
  0.00000000E+00  0.00000000E+00  0.00000000E+00
  0.00000000E+00  0.00000000E+00  0.00000000E+00
