Ag-Pd-H2O                               
   1.00000000000000     
     8.7913665770999998    0.0000000000000000    0.0000000000000000
     4.3956832885999999    7.6135467898000000    0.0000000000000000
     0.0000000000000000    0.0000000000000000   24.9519635624615859
   Ag   Pd   H    O 
    35     1     2     1
Selective dynamics
Direct
  0.0000000000000000  0.0000000000000000  0.2116942872471981   F   F   F
  0.3333333129999971  0.0000000000000000  0.2116942872471981   F   F   F
  0.6666666269999979  0.0000000000000000  0.2116942872471981   F   F   F
  0.0000000000000000  0.3333333429999996  0.2116942872471981   F   F   F
  0.3333333129999971  0.3333333429999996  0.2116942872471981   F   F   F
  0.6666666870000029  0.3333333429999996  0.2116942872471981   F   F   F
  0.0000000000000000  0.6666666870000029  0.2116942872471981   F   F   F
  0.3333333129999971  0.6666666870000029  0.2116942872471981   F   F   F
  0.6666666269999979  0.6666666870000029  0.2116942872471981   F   F   F
  0.1111111040000026  0.1111111120000032  0.3075868288647499   F   F   F
  0.4444444479999987  0.1111111120000032  0.3075868288647499   F   F   F
  0.7777777909999983  0.1111111120000032  0.3075868288647499   F   F   F
  0.1111110969999984  0.4444444479999987  0.3075868288647499   F   F   F
  0.4444444180000033  0.4444444479999987  0.3075868288647499   F   F   F
  0.7777777909999983  0.4444444479999987  0.3075868288647499   F   F   F
  0.1111111040000026  0.7777777909999983  0.3075868288647499   F   F   F
  0.4444444479999987  0.7777777909999983  0.3075868288647499   F   F   F
  0.7777777909999983  0.7777777909999983  0.3075868288647499   F   F   F
  0.8887301377009393  0.2225397405981298  0.4028693708463464   F   F   F
  0.2220376286556700  0.2220376436556677  0.4023729721216611   F   F   F
  0.5559246826886479  0.2220376436556677  0.4023729721216611   F   F   F
  0.8888542602374372  0.5555728998812697  0.4026572983644883   F   F   F
  0.2220376436556677  0.5559247426886529  0.4023729721216611   F   F   F
  0.5555728998812697  0.5555728998812697  0.4026572983644883   F   F   F
  0.8887301377009393  0.8887301377009393  0.4028693708463464   F   F   F
  0.2225397105981202  0.8887301377009393  0.4028693708463464   F   F   F
  0.5555728398812718  0.8888542602374372  0.4026572983644883   F   F   F
  0.0000000000000000  0.0000000000000000  0.4978578239592792   F   F   F
  0.3334471993126087  0.0025011092916785  0.4979348740817571   F   F   F
  0.6640516313957079  0.0025011092916785  0.4979348740817571   F   F   F
  0.0025011092916785  0.3334472293126112  0.4979348740817571   F   F   F
  0.6640516913957129  0.3334472293126112  0.4979348740817571   F   F   F
  0.0025011092916785  0.6640516913957129  0.4979348740817571   F   F   F
  0.3334471993126087  0.6640516913957129  0.4979348740817571   F   F   F
  0.6666666269999979  0.6666666870000029  0.4976789679076106   F   F   F
  0.3333333129999971  0.3333333429999996  0.4923991283625782   F   F   F
  0.2811111089640302  0.2771155534517668  0.6032707464053091   T   T   T
  0.4606085544747096  0.2690137369814428  0.6009588270617547   T   T   T
  0.3344601970406287  0.3504051599687565  0.5982977001249862   T   T   T
 
  0.00000000E+00  0.00000000E+00  0.00000000E+00
  0.00000000E+00  0.00000000E+00  0.00000000E+00
  0.00000000E+00  0.00000000E+00  0.00000000E+00
  0.00000000E+00  0.00000000E+00  0.00000000E+00
  0.00000000E+00  0.00000000E+00  0.00000000E+00
  0.00000000E+00  0.00000000E+00  0.00000000E+00
  0.00000000E+00  0.00000000E+00  0.00000000E+00
  0.00000000E+00  0.00000000E+00  0.00000000E+00
  0.00000000E+00  0.00000000E+00  0.00000000E+00
  0.00000000E+00  0.00000000E+00  0.00000000E+00
  0.00000000E+00  0.00000000E+00  0.00000000E+00
  0.00000000E+00  0.00000000E+00  0.00000000E+00
  0.00000000E+00  0.00000000E+00  0.00000000E+00
  0.00000000E+00  0.00000000E+00  0.00000000E+00
  0.00000000E+00  0.00000000E+00  0.00000000E+00
  0.00000000E+00  0.00000000E+00  0.00000000E+00
  0.00000000E+00  0.00000000E+00  0.00000000E+00
  0.00000000E+00  0.00000000E+00  0.00000000E+00
  0.00000000E+00  0.00000000E+00  0.00000000E+00
  0.00000000E+00  0.00000000E+00  0.00000000E+00
  0.00000000E+00  0.00000000E+00  0.00000000E+00
  0.00000000E+00  0.00000000E+00  0.00000000E+00
  0.00000000E+00  0.00000000E+00  0.00000000E+00
  0.00000000E+00  0.00000000E+00  0.00000000E+00
  0.00000000E+00  0.00000000E+00  0.00000000E+00
  0.00000000E+00  0.00000000E+00  0.00000000E+00
  0.00000000E+00  0.00000000E+00  0.00000000E+00
  0.00000000E+00  0.00000000E+00  0.00000000E+00
  0.00000000E+00  0.00000000E+00  0.00000000E+00
  0.00000000E+00  0.00000000E+00  0.00000000E+00
  0.00000000E+00  0.00000000E+00  0.00000000E+00
  0.00000000E+00  0.00000000E+00  0.00000000E+00
  0.00000000E+00  0.00000000E+00  0.00000000E+00
  0.00000000E+00  0.00000000E+00  0.00000000E+00
  0.00000000E+00  0.00000000E+00  0.00000000E+00
  0.00000000E+00  0.00000000E+00  0.00000000E+00
  0.00000000E+00  0.00000000E+00  0.00000000E+00
  0.00000000E+00  0.00000000E+00  0.00000000E+00
  0.00000000E+00  0.00000000E+00  0.00000000E+00
