Au-Fe-N2                                
   1.00000000000000     
     8.8135128021000000    0.0000000000000000    0.0000000000000000
     4.4067569092000003    7.6327256898000000    0.0000000000000000
     0.0000000000000000    0.0000000000000000   24.2408532634501590
   Au   Fe   N 
    35     1     2
Selective dynamics
Direct
  0.0000000000000000  0.0000000000000000  0.2178297880697286   F   F   F
  0.3333333429999996  0.0000000000000000  0.2178297880697286   F   F   F
  0.6666666870000029  0.0000000000000000  0.2178297880697286   F   F   F
  0.0000000000000000  0.3333333429999996  0.2178297880697286   F   F   F
  0.3333333129999971  0.3333333429999996  0.2178297880697286   F   F   F
  0.6666666870000029  0.3333333429999996  0.2178297880697286   F   F   F
  0.0000000000000000  0.6666666870000029  0.2178297880697286   F   F   F
  0.3333333429999996  0.6666666870000029  0.2178297880697286   F   F   F
  0.6666666269999979  0.6666666870000029  0.2178297880697286   F   F   F
  0.1111111190000003  0.1111111120000032  0.3167839829005601   F   F   F
  0.4444444180000033  0.1111111120000032  0.3167839829005601   F   F   F
  0.7777777909999983  0.1111111120000032  0.3167839829005601   F   F   F
  0.1111111270000009  0.4444444479999987  0.3167839829005601   F   F   F
  0.4444444780000012  0.4444444479999987  0.3167839829005601   F   F   F
  0.7777777310000005  0.4444444479999987  0.3167839829005601   F   F   F
  0.1111110900000014  0.7777777909999983  0.3167839829005601   F   F   F
  0.4444444479999987  0.7777777909999983  0.3167839829005601   F   F   F
  0.7777778510000033  0.7777777909999983  0.3167839829005601   F   F   F
  0.8888977238053712  0.2222045683892588  0.4156286821789266   F   F   F
  0.2233416758201230  0.2233416608201324  0.4146174688300377   F   F   F
  0.5533167083597377  0.2233416608201324  0.4146174688300377   F   F   F
  0.8867027054939101  0.5566486772530368  0.4150499416725779   F   F   F
  0.2233416308201228  0.5533167083597377  0.4146174688300377   F   F   F
  0.5566486772530368  0.5566486772530368  0.4150499416725779   F   F   F
  0.8888977238053712  0.8888977238053712  0.4156286821789266   F   F   F
  0.2222045983892613  0.8888977238053712  0.4156286821789266   F   F   F
  0.5566486172530531  0.8867027054939101  0.4150499416725779   F   F   F
  0.0000000000000000  0.0000000000000000  0.5151212871544573   F   F   F
  0.3334090100058518  0.0097494303455079  0.5143881413313878   F   F   F
  0.6568415896486428  0.0097494303455079  0.5143881413313878   F   F   F
  0.0097494303455079  0.3334090100058518  0.5143881413313878   F   F   F
  0.6568415896486428  0.3334090100058518  0.5143881413313878   F   F   F
  0.0097494303455079  0.6568415896486428  0.5143881413313878   F   F   F
  0.3334090100058518  0.6568415896486428  0.5143881413313878   F   F   F
  0.6666666269999979  0.6666666870000029  0.5153209090126509   F   F   F
  0.3333333129999971  0.3333333429999996  0.5016517068286106   F   F   F
  0.2568878914777233  0.3598536397413561  0.6797462665160042   T   T   T
  0.3832584377809212  0.3598536397413561  0.6797462665160042   T   T   T
 
  0.00000000E+00  0.00000000E+00  0.00000000E+00
  0.00000000E+00  0.00000000E+00  0.00000000E+00
  0.00000000E+00  0.00000000E+00  0.00000000E+00
  0.00000000E+00  0.00000000E+00  0.00000000E+00
  0.00000000E+00  0.00000000E+00  0.00000000E+00
  0.00000000E+00  0.00000000E+00  0.00000000E+00
  0.00000000E+00  0.00000000E+00  0.00000000E+00
  0.00000000E+00  0.00000000E+00  0.00000000E+00
  0.00000000E+00  0.00000000E+00  0.00000000E+00
  0.00000000E+00  0.00000000E+00  0.00000000E+00
  0.00000000E+00  0.00000000E+00  0.00000000E+00
  0.00000000E+00  0.00000000E+00  0.00000000E+00
  0.00000000E+00  0.00000000E+00  0.00000000E+00
  0.00000000E+00  0.00000000E+00  0.00000000E+00
  0.00000000E+00  0.00000000E+00  0.00000000E+00
  0.00000000E+00  0.00000000E+00  0.00000000E+00
  0.00000000E+00  0.00000000E+00  0.00000000E+00
  0.00000000E+00  0.00000000E+00  0.00000000E+00
  0.00000000E+00  0.00000000E+00  0.00000000E+00
  0.00000000E+00  0.00000000E+00  0.00000000E+00
  0.00000000E+00  0.00000000E+00  0.00000000E+00
  0.00000000E+00  0.00000000E+00  0.00000000E+00
  0.00000000E+00  0.00000000E+00  0.00000000E+00
  0.00000000E+00  0.00000000E+00  0.00000000E+00
  0.00000000E+00  0.00000000E+00  0.00000000E+00
  0.00000000E+00  0.00000000E+00  0.00000000E+00
  0.00000000E+00  0.00000000E+00  0.00000000E+00
  0.00000000E+00  0.00000000E+00  0.00000000E+00
  0.00000000E+00  0.00000000E+00  0.00000000E+00
  0.00000000E+00  0.00000000E+00  0.00000000E+00
  0.00000000E+00  0.00000000E+00  0.00000000E+00
  0.00000000E+00  0.00000000E+00  0.00000000E+00
  0.00000000E+00  0.00000000E+00  0.00000000E+00
  0.00000000E+00  0.00000000E+00  0.00000000E+00
  0.00000000E+00  0.00000000E+00  0.00000000E+00
  0.00000000E+00  0.00000000E+00  0.00000000E+00
  0.00000000E+00  0.00000000E+00  0.00000000E+00
  0.00000000E+00  0.00000000E+00  0.00000000E+00
